*HEADING
med_N: FTM oracle, N on a r=100.0 t=2.0 l=400.0 tube
*NODE
1, 100.000000, 0.000000, 0.000000
2, 99.518473, 9.801714, 0.000000
3, 98.078528, 19.509032, 0.000000
4, 95.694034, 29.028468, 0.000000
5, 92.387953, 38.268343, 0.000000
6, 88.192126, 47.139674, 0.000000
7, 83.146961, 55.557023, 0.000000
8, 77.301045, 63.439328, 0.000000
9, 70.710678, 70.710678, 0.000000
10, 63.439328, 77.301045, 0.000000
11, 55.557023, 83.146961, 0.000000
12, 47.139674, 88.192126, 0.000000
13, 38.268343, 92.387953, 0.000000
14, 29.028468, 95.694034, 0.000000
15, 19.509032, 98.078528, 0.000000
16, 9.801714, 99.518473, 0.000000
17, 0.000000, 100.000000, 0.000000
18, -9.801714, 99.518473, 0.000000
19, -19.509032, 98.078528, 0.000000
20, -29.028468, 95.694034, 0.000000
21, -38.268343, 92.387953, 0.000000
22, -47.139674, 88.192126, 0.000000
23, -55.557023, 83.146961, 0.000000
24, -63.439328, 77.301045, 0.000000
25, -70.710678, 70.710678, 0.000000
26, -77.301045, 63.439328, 0.000000
27, -83.146961, 55.557023, 0.000000
28, -88.192126, 47.139674, 0.000000
29, -92.387953, 38.268343, 0.000000
30, -95.694034, 29.028468, 0.000000
31, -98.078528, 19.509032, 0.000000
32, -99.518473, 9.801714, 0.000000
33, -100.000000, 0.000000, 0.000000
34, -99.518473, -9.801714, 0.000000
35, -98.078528, -19.509032, 0.000000
36, -95.694034, -29.028468, 0.000000
37, -92.387953, -38.268343, 0.000000
38, -88.192126, -47.139674, 0.000000
39, -83.146961, -55.557023, 0.000000
40, -77.301045, -63.439328, 0.000000
41, -70.710678, -70.710678, 0.000000
42, -63.439328, -77.301045, 0.000000
43, -55.557023, -83.146961, 0.000000
44, -47.139674, -88.192126, 0.000000
45, -38.268343, -92.387953, 0.000000
46, -29.028468, -95.694034, 0.000000
47, -19.509032, -98.078528, 0.000000
48, -9.801714, -99.518473, 0.000000
49, -0.000000, -100.000000, 0.000000
50, 9.801714, -99.518473, 0.000000
51, 19.509032, -98.078528, 0.000000
52, 29.028468, -95.694034, 0.000000
53, 38.268343, -92.387953, 0.000000
54, 47.139674, -88.192126, 0.000000
55, 55.557023, -83.146961, 0.000000
56, 63.439328, -77.301045, 0.000000
57, 70.710678, -70.710678, 0.000000
58, 77.301045, -63.439328, 0.000000
59, 83.146961, -55.557023, 0.000000
60, 88.192126, -47.139674, 0.000000
61, 92.387953, -38.268343, 0.000000
62, 95.694034, -29.028468, 0.000000
63, 98.078528, -19.509032, 0.000000
64, 99.518473, -9.801714, 0.000000
65, 100.000000, 0.000000, 10.000000
66, 99.518473, 9.801714, 10.000000
67, 98.078528, 19.509032, 10.000000
68, 95.694034, 29.028468, 10.000000
69, 92.387953, 38.268343, 10.000000
70, 88.192126, 47.139674, 10.000000
71, 83.146961, 55.557023, 10.000000
72, 77.301045, 63.439328, 10.000000
73, 70.710678, 70.710678, 10.000000
74, 63.439328, 77.301045, 10.000000
75, 55.557023, 83.146961, 10.000000
76, 47.139674, 88.192126, 10.000000
77, 38.268343, 92.387953, 10.000000
78, 29.028468, 95.694034, 10.000000
79, 19.509032, 98.078528, 10.000000
80, 9.801714, 99.518473, 10.000000
81, 0.000000, 100.000000, 10.000000
82, -9.801714, 99.518473, 10.000000
83, -19.509032, 98.078528, 10.000000
84, -29.028468, 95.694034, 10.000000
85, -38.268343, 92.387953, 10.000000
86, -47.139674, 88.192126, 10.000000
87, -55.557023, 83.146961, 10.000000
88, -63.439328, 77.301045, 10.000000
89, -70.710678, 70.710678, 10.000000
90, -77.301045, 63.439328, 10.000000
91, -83.146961, 55.557023, 10.000000
92, -88.192126, 47.139674, 10.000000
93, -92.387953, 38.268343, 10.000000
94, -95.694034, 29.028468, 10.000000
95, -98.078528, 19.509032, 10.000000
96, -99.518473, 9.801714, 10.000000
97, -100.000000, 0.000000, 10.000000
98, -99.518473, -9.801714, 10.000000
99, -98.078528, -19.509032, 10.000000
100, -95.694034, -29.028468, 10.000000
101, -92.387953, -38.268343, 10.000000
102, -88.192126, -47.139674, 10.000000
103, -83.146961, -55.557023, 10.000000
104, -77.301045, -63.439328, 10.000000
105, -70.710678, -70.710678, 10.000000
106, -63.439328, -77.301045, 10.000000
107, -55.557023, -83.146961, 10.000000
108, -47.139674, -88.192126, 10.000000
109, -38.268343, -92.387953, 10.000000
110, -29.028468, -95.694034, 10.000000
111, -19.509032, -98.078528, 10.000000
112, -9.801714, -99.518473, 10.000000
113, -0.000000, -100.000000, 10.000000
114, 9.801714, -99.518473, 10.000000
115, 19.509032, -98.078528, 10.000000
116, 29.028468, -95.694034, 10.000000
117, 38.268343, -92.387953, 10.000000
118, 47.139674, -88.192126, 10.000000
119, 55.557023, -83.146961, 10.000000
120, 63.439328, -77.301045, 10.000000
121, 70.710678, -70.710678, 10.000000
122, 77.301045, -63.439328, 10.000000
123, 83.146961, -55.557023, 10.000000
124, 88.192126, -47.139674, 10.000000
125, 92.387953, -38.268343, 10.000000
126, 95.694034, -29.028468, 10.000000
127, 98.078528, -19.509032, 10.000000
128, 99.518473, -9.801714, 10.000000
129, 100.000000, 0.000000, 20.000000
130, 99.518473, 9.801714, 20.000000
131, 98.078528, 19.509032, 20.000000
132, 95.694034, 29.028468, 20.000000
133, 92.387953, 38.268343, 20.000000
134, 88.192126, 47.139674, 20.000000
135, 83.146961, 55.557023, 20.000000
136, 77.301045, 63.439328, 20.000000
137, 70.710678, 70.710678, 20.000000
138, 63.439328, 77.301045, 20.000000
139, 55.557023, 83.146961, 20.000000
140, 47.139674, 88.192126, 20.000000
141, 38.268343, 92.387953, 20.000000
142, 29.028468, 95.694034, 20.000000
143, 19.509032, 98.078528, 20.000000
144, 9.801714, 99.518473, 20.000000
145, 0.000000, 100.000000, 20.000000
146, -9.801714, 99.518473, 20.000000
147, -19.509032, 98.078528, 20.000000
148, -29.028468, 95.694034, 20.000000
149, -38.268343, 92.387953, 20.000000
150, -47.139674, 88.192126, 20.000000
151, -55.557023, 83.146961, 20.000000
152, -63.439328, 77.301045, 20.000000
153, -70.710678, 70.710678, 20.000000
154, -77.301045, 63.439328, 20.000000
155, -83.146961, 55.557023, 20.000000
156, -88.192126, 47.139674, 20.000000
157, -92.387953, 38.268343, 20.000000
158, -95.694034, 29.028468, 20.000000
159, -98.078528, 19.509032, 20.000000
160, -99.518473, 9.801714, 20.000000
161, -100.000000, 0.000000, 20.000000
162, -99.518473, -9.801714, 20.000000
163, -98.078528, -19.509032, 20.000000
164, -95.694034, -29.028468, 20.000000
165, -92.387953, -38.268343, 20.000000
166, -88.192126, -47.139674, 20.000000
167, -83.146961, -55.557023, 20.000000
168, -77.301045, -63.439328, 20.000000
169, -70.710678, -70.710678, 20.000000
170, -63.439328, -77.301045, 20.000000
171, -55.557023, -83.146961, 20.000000
172, -47.139674, -88.192126, 20.000000
173, -38.268343, -92.387953, 20.000000
174, -29.028468, -95.694034, 20.000000
175, -19.509032, -98.078528, 20.000000
176, -9.801714, -99.518473, 20.000000
177, -0.000000, -100.000000, 20.000000
178, 9.801714, -99.518473, 20.000000
179, 19.509032, -98.078528, 20.000000
180, 29.028468, -95.694034, 20.000000
181, 38.268343, -92.387953, 20.000000
182, 47.139674, -88.192126, 20.000000
183, 55.557023, -83.146961, 20.000000
184, 63.439328, -77.301045, 20.000000
185, 70.710678, -70.710678, 20.000000
186, 77.301045, -63.439328, 20.000000
187, 83.146961, -55.557023, 20.000000
188, 88.192126, -47.139674, 20.000000
189, 92.387953, -38.268343, 20.000000
190, 95.694034, -29.028468, 20.000000
191, 98.078528, -19.509032, 20.000000
192, 99.518473, -9.801714, 20.000000
193, 100.000000, 0.000000, 30.000000
194, 99.518473, 9.801714, 30.000000
195, 98.078528, 19.509032, 30.000000
196, 95.694034, 29.028468, 30.000000
197, 92.387953, 38.268343, 30.000000
198, 88.192126, 47.139674, 30.000000
199, 83.146961, 55.557023, 30.000000
200, 77.301045, 63.439328, 30.000000
201, 70.710678, 70.710678, 30.000000
202, 63.439328, 77.301045, 30.000000
203, 55.557023, 83.146961, 30.000000
204, 47.139674, 88.192126, 30.000000
205, 38.268343, 92.387953, 30.000000
206, 29.028468, 95.694034, 30.000000
207, 19.509032, 98.078528, 30.000000
208, 9.801714, 99.518473, 30.000000
209, 0.000000, 100.000000, 30.000000
210, -9.801714, 99.518473, 30.000000
211, -19.509032, 98.078528, 30.000000
212, -29.028468, 95.694034, 30.000000
213, -38.268343, 92.387953, 30.000000
214, -47.139674, 88.192126, 30.000000
215, -55.557023, 83.146961, 30.000000
216, -63.439328, 77.301045, 30.000000
217, -70.710678, 70.710678, 30.000000
218, -77.301045, 63.439328, 30.000000
219, -83.146961, 55.557023, 30.000000
220, -88.192126, 47.139674, 30.000000
221, -92.387953, 38.268343, 30.000000
222, -95.694034, 29.028468, 30.000000
223, -98.078528, 19.509032, 30.000000
224, -99.518473, 9.801714, 30.000000
225, -100.000000, 0.000000, 30.000000
226, -99.518473, -9.801714, 30.000000
227, -98.078528, -19.509032, 30.000000
228, -95.694034, -29.028468, 30.000000
229, -92.387953, -38.268343, 30.000000
230, -88.192126, -47.139674, 30.000000
231, -83.146961, -55.557023, 30.000000
232, -77.301045, -63.439328, 30.000000
233, -70.710678, -70.710678, 30.000000
234, -63.439328, -77.301045, 30.000000
235, -55.557023, -83.146961, 30.000000
236, -47.139674, -88.192126, 30.000000
237, -38.268343, -92.387953, 30.000000
238, -29.028468, -95.694034, 30.000000
239, -19.509032, -98.078528, 30.000000
240, -9.801714, -99.518473, 30.000000
241, -0.000000, -100.000000, 30.000000
242, 9.801714, -99.518473, 30.000000
243, 19.509032, -98.078528, 30.000000
244, 29.028468, -95.694034, 30.000000
245, 38.268343, -92.387953, 30.000000
246, 47.139674, -88.192126, 30.000000
247, 55.557023, -83.146961, 30.000000
248, 63.439328, -77.301045, 30.000000
249, 70.710678, -70.710678, 30.000000
250, 77.301045, -63.439328, 30.000000
251, 83.146961, -55.557023, 30.000000
252, 88.192126, -47.139674, 30.000000
253, 92.387953, -38.268343, 30.000000
254, 95.694034, -29.028468, 30.000000
255, 98.078528, -19.509032, 30.000000
256, 99.518473, -9.801714, 30.000000
257, 100.000000, 0.000000, 40.000000
258, 99.518473, 9.801714, 40.000000
259, 98.078528, 19.509032, 40.000000
260, 95.694034, 29.028468, 40.000000
261, 92.387953, 38.268343, 40.000000
262, 88.192126, 47.139674, 40.000000
263, 83.146961, 55.557023, 40.000000
264, 77.301045, 63.439328, 40.000000
265, 70.710678, 70.710678, 40.000000
266, 63.439328, 77.301045, 40.000000
267, 55.557023, 83.146961, 40.000000
268, 47.139674, 88.192126, 40.000000
269, 38.268343, 92.387953, 40.000000
270, 29.028468, 95.694034, 40.000000
271, 19.509032, 98.078528, 40.000000
272, 9.801714, 99.518473, 40.000000
273, 0.000000, 100.000000, 40.000000
274, -9.801714, 99.518473, 40.000000
275, -19.509032, 98.078528, 40.000000
276, -29.028468, 95.694034, 40.000000
277, -38.268343, 92.387953, 40.000000
278, -47.139674, 88.192126, 40.000000
279, -55.557023, 83.146961, 40.000000
280, -63.439328, 77.301045, 40.000000
281, -70.710678, 70.710678, 40.000000
282, -77.301045, 63.439328, 40.000000
283, -83.146961, 55.557023, 40.000000
284, -88.192126, 47.139674, 40.000000
285, -92.387953, 38.268343, 40.000000
286, -95.694034, 29.028468, 40.000000
287, -98.078528, 19.509032, 40.000000
288, -99.518473, 9.801714, 40.000000
289, -100.000000, 0.000000, 40.000000
290, -99.518473, -9.801714, 40.000000
291, -98.078528, -19.509032, 40.000000
292, -95.694034, -29.028468, 40.000000
293, -92.387953, -38.268343, 40.000000
294, -88.192126, -47.139674, 40.000000
295, -83.146961, -55.557023, 40.000000
296, -77.301045, -63.439328, 40.000000
297, -70.710678, -70.710678, 40.000000
298, -63.439328, -77.301045, 40.000000
299, -55.557023, -83.146961, 40.000000
300, -47.139674, -88.192126, 40.000000
301, -38.268343, -92.387953, 40.000000
302, -29.028468, -95.694034, 40.000000
303, -19.509032, -98.078528, 40.000000
304, -9.801714, -99.518473, 40.000000
305, -0.000000, -100.000000, 40.000000
306, 9.801714, -99.518473, 40.000000
307, 19.509032, -98.078528, 40.000000
308, 29.028468, -95.694034, 40.000000
309, 38.268343, -92.387953, 40.000000
310, 47.139674, -88.192126, 40.000000
311, 55.557023, -83.146961, 40.000000
312, 63.439328, -77.301045, 40.000000
313, 70.710678, -70.710678, 40.000000
314, 77.301045, -63.439328, 40.000000
315, 83.146961, -55.557023, 40.000000
316, 88.192126, -47.139674, 40.000000
317, 92.387953, -38.268343, 40.000000
318, 95.694034, -29.028468, 40.000000
319, 98.078528, -19.509032, 40.000000
320, 99.518473, -9.801714, 40.000000
321, 100.000000, 0.000000, 50.000000
322, 99.518473, 9.801714, 50.000000
323, 98.078528, 19.509032, 50.000000
324, 95.694034, 29.028468, 50.000000
325, 92.387953, 38.268343, 50.000000
326, 88.192126, 47.139674, 50.000000
327, 83.146961, 55.557023, 50.000000
328, 77.301045, 63.439328, 50.000000
329, 70.710678, 70.710678, 50.000000
330, 63.439328, 77.301045, 50.000000
331, 55.557023, 83.146961, 50.000000
332, 47.139674, 88.192126, 50.000000
333, 38.268343, 92.387953, 50.000000
334, 29.028468, 95.694034, 50.000000
335, 19.509032, 98.078528, 50.000000
336, 9.801714, 99.518473, 50.000000
337, 0.000000, 100.000000, 50.000000
338, -9.801714, 99.518473, 50.000000
339, -19.509032, 98.078528, 50.000000
340, -29.028468, 95.694034, 50.000000
341, -38.268343, 92.387953, 50.000000
342, -47.139674, 88.192126, 50.000000
343, -55.557023, 83.146961, 50.000000
344, -63.439328, 77.301045, 50.000000
345, -70.710678, 70.710678, 50.000000
346, -77.301045, 63.439328, 50.000000
347, -83.146961, 55.557023, 50.000000
348, -88.192126, 47.139674, 50.000000
349, -92.387953, 38.268343, 50.000000
350, -95.694034, 29.028468, 50.000000
351, -98.078528, 19.509032, 50.000000
352, -99.518473, 9.801714, 50.000000
353, -100.000000, 0.000000, 50.000000
354, -99.518473, -9.801714, 50.000000
355, -98.078528, -19.509032, 50.000000
356, -95.694034, -29.028468, 50.000000
357, -92.387953, -38.268343, 50.000000
358, -88.192126, -47.139674, 50.000000
359, -83.146961, -55.557023, 50.000000
360, -77.301045, -63.439328, 50.000000
361, -70.710678, -70.710678, 50.000000
362, -63.439328, -77.301045, 50.000000
363, -55.557023, -83.146961, 50.000000
364, -47.139674, -88.192126, 50.000000
365, -38.268343, -92.387953, 50.000000
366, -29.028468, -95.694034, 50.000000
367, -19.509032, -98.078528, 50.000000
368, -9.801714, -99.518473, 50.000000
369, -0.000000, -100.000000, 50.000000
370, 9.801714, -99.518473, 50.000000
371, 19.509032, -98.078528, 50.000000
372, 29.028468, -95.694034, 50.000000
373, 38.268343, -92.387953, 50.000000
374, 47.139674, -88.192126, 50.000000
375, 55.557023, -83.146961, 50.000000
376, 63.439328, -77.301045, 50.000000
377, 70.710678, -70.710678, 50.000000
378, 77.301045, -63.439328, 50.000000
379, 83.146961, -55.557023, 50.000000
380, 88.192126, -47.139674, 50.000000
381, 92.387953, -38.268343, 50.000000
382, 95.694034, -29.028468, 50.000000
383, 98.078528, -19.509032, 50.000000
384, 99.518473, -9.801714, 50.000000
385, 100.000000, 0.000000, 60.000000
386, 99.518473, 9.801714, 60.000000
387, 98.078528, 19.509032, 60.000000
388, 95.694034, 29.028468, 60.000000
389, 92.387953, 38.268343, 60.000000
390, 88.192126, 47.139674, 60.000000
391, 83.146961, 55.557023, 60.000000
392, 77.301045, 63.439328, 60.000000
393, 70.710678, 70.710678, 60.000000
394, 63.439328, 77.301045, 60.000000
395, 55.557023, 83.146961, 60.000000
396, 47.139674, 88.192126, 60.000000
397, 38.268343, 92.387953, 60.000000
398, 29.028468, 95.694034, 60.000000
399, 19.509032, 98.078528, 60.000000
400, 9.801714, 99.518473, 60.000000
401, 0.000000, 100.000000, 60.000000
402, -9.801714, 99.518473, 60.000000
403, -19.509032, 98.078528, 60.000000
404, -29.028468, 95.694034, 60.000000
405, -38.268343, 92.387953, 60.000000
406, -47.139674, 88.192126, 60.000000
407, -55.557023, 83.146961, 60.000000
408, -63.439328, 77.301045, 60.000000
409, -70.710678, 70.710678, 60.000000
410, -77.301045, 63.439328, 60.000000
411, -83.146961, 55.557023, 60.000000
412, -88.192126, 47.139674, 60.000000
413, -92.387953, 38.268343, 60.000000
414, -95.694034, 29.028468, 60.000000
415, -98.078528, 19.509032, 60.000000
416, -99.518473, 9.801714, 60.000000
417, -100.000000, 0.000000, 60.000000
418, -99.518473, -9.801714, 60.000000
419, -98.078528, -19.509032, 60.000000
420, -95.694034, -29.028468, 60.000000
421, -92.387953, -38.268343, 60.000000
422, -88.192126, -47.139674, 60.000000
423, -83.146961, -55.557023, 60.000000
424, -77.301045, -63.439328, 60.000000
425, -70.710678, -70.710678, 60.000000
426, -63.439328, -77.301045, 60.000000
427, -55.557023, -83.146961, 60.000000
428, -47.139674, -88.192126, 60.000000
429, -38.268343, -92.387953, 60.000000
430, -29.028468, -95.694034, 60.000000
431, -19.509032, -98.078528, 60.000000
432, -9.801714, -99.518473, 60.000000
433, -0.000000, -100.000000, 60.000000
434, 9.801714, -99.518473, 60.000000
435, 19.509032, -98.078528, 60.000000
436, 29.028468, -95.694034, 60.000000
437, 38.268343, -92.387953, 60.000000
438, 47.139674, -88.192126, 60.000000
439, 55.557023, -83.146961, 60.000000
440, 63.439328, -77.301045, 60.000000
441, 70.710678, -70.710678, 60.000000
442, 77.301045, -63.439328, 60.000000
443, 83.146961, -55.557023, 60.000000
444, 88.192126, -47.139674, 60.000000
445, 92.387953, -38.268343, 60.000000
446, 95.694034, -29.028468, 60.000000
447, 98.078528, -19.509032, 60.000000
448, 99.518473, -9.801714, 60.000000
449, 100.000000, 0.000000, 70.000000
450, 99.518473, 9.801714, 70.000000
451, 98.078528, 19.509032, 70.000000
452, 95.694034, 29.028468, 70.000000
453, 92.387953, 38.268343, 70.000000
454, 88.192126, 47.139674, 70.000000
455, 83.146961, 55.557023, 70.000000
456, 77.301045, 63.439328, 70.000000
457, 70.710678, 70.710678, 70.000000
458, 63.439328, 77.301045, 70.000000
459, 55.557023, 83.146961, 70.000000
460, 47.139674, 88.192126, 70.000000
461, 38.268343, 92.387953, 70.000000
462, 29.028468, 95.694034, 70.000000
463, 19.509032, 98.078528, 70.000000
464, 9.801714, 99.518473, 70.000000
465, 0.000000, 100.000000, 70.000000
466, -9.801714, 99.518473, 70.000000
467, -19.509032, 98.078528, 70.000000
468, -29.028468, 95.694034, 70.000000
469, -38.268343, 92.387953, 70.000000
470, -47.139674, 88.192126, 70.000000
471, -55.557023, 83.146961, 70.000000
472, -63.439328, 77.301045, 70.000000
473, -70.710678, 70.710678, 70.000000
474, -77.301045, 63.439328, 70.000000
475, -83.146961, 55.557023, 70.000000
476, -88.192126, 47.139674, 70.000000
477, -92.387953, 38.268343, 70.000000
478, -95.694034, 29.028468, 70.000000
479, -98.078528, 19.509032, 70.000000
480, -99.518473, 9.801714, 70.000000
481, -100.000000, 0.000000, 70.000000
482, -99.518473, -9.801714, 70.000000
483, -98.078528, -19.509032, 70.000000
484, -95.694034, -29.028468, 70.000000
485, -92.387953, -38.268343, 70.000000
486, -88.192126, -47.139674, 70.000000
487, -83.146961, -55.557023, 70.000000
488, -77.301045, -63.439328, 70.000000
489, -70.710678, -70.710678, 70.000000
490, -63.439328, -77.301045, 70.000000
491, -55.557023, -83.146961, 70.000000
492, -47.139674, -88.192126, 70.000000
493, -38.268343, -92.387953, 70.000000
494, -29.028468, -95.694034, 70.000000
495, -19.509032, -98.078528, 70.000000
496, -9.801714, -99.518473, 70.000000
497, -0.000000, -100.000000, 70.000000
498, 9.801714, -99.518473, 70.000000
499, 19.509032, -98.078528, 70.000000
500, 29.028468, -95.694034, 70.000000
501, 38.268343, -92.387953, 70.000000
502, 47.139674, -88.192126, 70.000000
503, 55.557023, -83.146961, 70.000000
504, 63.439328, -77.301045, 70.000000
505, 70.710678, -70.710678, 70.000000
506, 77.301045, -63.439328, 70.000000
507, 83.146961, -55.557023, 70.000000
508, 88.192126, -47.139674, 70.000000
509, 92.387953, -38.268343, 70.000000
510, 95.694034, -29.028468, 70.000000
511, 98.078528, -19.509032, 70.000000
512, 99.518473, -9.801714, 70.000000
513, 100.000000, 0.000000, 80.000000
514, 99.518473, 9.801714, 80.000000
515, 98.078528, 19.509032, 80.000000
516, 95.694034, 29.028468, 80.000000
517, 92.387953, 38.268343, 80.000000
518, 88.192126, 47.139674, 80.000000
519, 83.146961, 55.557023, 80.000000
520, 77.301045, 63.439328, 80.000000
521, 70.710678, 70.710678, 80.000000
522, 63.439328, 77.301045, 80.000000
523, 55.557023, 83.146961, 80.000000
524, 47.139674, 88.192126, 80.000000
525, 38.268343, 92.387953, 80.000000
526, 29.028468, 95.694034, 80.000000
527, 19.509032, 98.078528, 80.000000
528, 9.801714, 99.518473, 80.000000
529, 0.000000, 100.000000, 80.000000
530, -9.801714, 99.518473, 80.000000
531, -19.509032, 98.078528, 80.000000
532, -29.028468, 95.694034, 80.000000
533, -38.268343, 92.387953, 80.000000
534, -47.139674, 88.192126, 80.000000
535, -55.557023, 83.146961, 80.000000
536, -63.439328, 77.301045, 80.000000
537, -70.710678, 70.710678, 80.000000
538, -77.301045, 63.439328, 80.000000
539, -83.146961, 55.557023, 80.000000
540, -88.192126, 47.139674, 80.000000
541, -92.387953, 38.268343, 80.000000
542, -95.694034, 29.028468, 80.000000
543, -98.078528, 19.509032, 80.000000
544, -99.518473, 9.801714, 80.000000
545, -100.000000, 0.000000, 80.000000
546, -99.518473, -9.801714, 80.000000
547, -98.078528, -19.509032, 80.000000
548, -95.694034, -29.028468, 80.000000
549, -92.387953, -38.268343, 80.000000
550, -88.192126, -47.139674, 80.000000
551, -83.146961, -55.557023, 80.000000
552, -77.301045, -63.439328, 80.000000
553, -70.710678, -70.710678, 80.000000
554, -63.439328, -77.301045, 80.000000
555, -55.557023, -83.146961, 80.000000
556, -47.139674, -88.192126, 80.000000
557, -38.268343, -92.387953, 80.000000
558, -29.028468, -95.694034, 80.000000
559, -19.509032, -98.078528, 80.000000
560, -9.801714, -99.518473, 80.000000
561, -0.000000, -100.000000, 80.000000
562, 9.801714, -99.518473, 80.000000
563, 19.509032, -98.078528, 80.000000
564, 29.028468, -95.694034, 80.000000
565, 38.268343, -92.387953, 80.000000
566, 47.139674, -88.192126, 80.000000
567, 55.557023, -83.146961, 80.000000
568, 63.439328, -77.301045, 80.000000
569, 70.710678, -70.710678, 80.000000
570, 77.301045, -63.439328, 80.000000
571, 83.146961, -55.557023, 80.000000
572, 88.192126, -47.139674, 80.000000
573, 92.387953, -38.268343, 80.000000
574, 95.694034, -29.028468, 80.000000
575, 98.078528, -19.509032, 80.000000
576, 99.518473, -9.801714, 80.000000
577, 100.000000, 0.000000, 90.000000
578, 99.518473, 9.801714, 90.000000
579, 98.078528, 19.509032, 90.000000
580, 95.694034, 29.028468, 90.000000
581, 92.387953, 38.268343, 90.000000
582, 88.192126, 47.139674, 90.000000
583, 83.146961, 55.557023, 90.000000
584, 77.301045, 63.439328, 90.000000
585, 70.710678, 70.710678, 90.000000
586, 63.439328, 77.301045, 90.000000
587, 55.557023, 83.146961, 90.000000
588, 47.139674, 88.192126, 90.000000
589, 38.268343, 92.387953, 90.000000
590, 29.028468, 95.694034, 90.000000
591, 19.509032, 98.078528, 90.000000
592, 9.801714, 99.518473, 90.000000
593, 0.000000, 100.000000, 90.000000
594, -9.801714, 99.518473, 90.000000
595, -19.509032, 98.078528, 90.000000
596, -29.028468, 95.694034, 90.000000
597, -38.268343, 92.387953, 90.000000
598, -47.139674, 88.192126, 90.000000
599, -55.557023, 83.146961, 90.000000
600, -63.439328, 77.301045, 90.000000
601, -70.710678, 70.710678, 90.000000
602, -77.301045, 63.439328, 90.000000
603, -83.146961, 55.557023, 90.000000
604, -88.192126, 47.139674, 90.000000
605, -92.387953, 38.268343, 90.000000
606, -95.694034, 29.028468, 90.000000
607, -98.078528, 19.509032, 90.000000
608, -99.518473, 9.801714, 90.000000
609, -100.000000, 0.000000, 90.000000
610, -99.518473, -9.801714, 90.000000
611, -98.078528, -19.509032, 90.000000
612, -95.694034, -29.028468, 90.000000
613, -92.387953, -38.268343, 90.000000
614, -88.192126, -47.139674, 90.000000
615, -83.146961, -55.557023, 90.000000
616, -77.301045, -63.439328, 90.000000
617, -70.710678, -70.710678, 90.000000
618, -63.439328, -77.301045, 90.000000
619, -55.557023, -83.146961, 90.000000
620, -47.139674, -88.192126, 90.000000
621, -38.268343, -92.387953, 90.000000
622, -29.028468, -95.694034, 90.000000
623, -19.509032, -98.078528, 90.000000
624, -9.801714, -99.518473, 90.000000
625, -0.000000, -100.000000, 90.000000
626, 9.801714, -99.518473, 90.000000
627, 19.509032, -98.078528, 90.000000
628, 29.028468, -95.694034, 90.000000
629, 38.268343, -92.387953, 90.000000
630, 47.139674, -88.192126, 90.000000
631, 55.557023, -83.146961, 90.000000
632, 63.439328, -77.301045, 90.000000
633, 70.710678, -70.710678, 90.000000
634, 77.301045, -63.439328, 90.000000
635, 83.146961, -55.557023, 90.000000
636, 88.192126, -47.139674, 90.000000
637, 92.387953, -38.268343, 90.000000
638, 95.694034, -29.028468, 90.000000
639, 98.078528, -19.509032, 90.000000
640, 99.518473, -9.801714, 90.000000
641, 100.000000, 0.000000, 100.000000
642, 99.518473, 9.801714, 100.000000
643, 98.078528, 19.509032, 100.000000
644, 95.694034, 29.028468, 100.000000
645, 92.387953, 38.268343, 100.000000
646, 88.192126, 47.139674, 100.000000
647, 83.146961, 55.557023, 100.000000
648, 77.301045, 63.439328, 100.000000
649, 70.710678, 70.710678, 100.000000
650, 63.439328, 77.301045, 100.000000
651, 55.557023, 83.146961, 100.000000
652, 47.139674, 88.192126, 100.000000
653, 38.268343, 92.387953, 100.000000
654, 29.028468, 95.694034, 100.000000
655, 19.509032, 98.078528, 100.000000
656, 9.801714, 99.518473, 100.000000
657, 0.000000, 100.000000, 100.000000
658, -9.801714, 99.518473, 100.000000
659, -19.509032, 98.078528, 100.000000
660, -29.028468, 95.694034, 100.000000
661, -38.268343, 92.387953, 100.000000
662, -47.139674, 88.192126, 100.000000
663, -55.557023, 83.146961, 100.000000
664, -63.439328, 77.301045, 100.000000
665, -70.710678, 70.710678, 100.000000
666, -77.301045, 63.439328, 100.000000
667, -83.146961, 55.557023, 100.000000
668, -88.192126, 47.139674, 100.000000
669, -92.387953, 38.268343, 100.000000
670, -95.694034, 29.028468, 100.000000
671, -98.078528, 19.509032, 100.000000
672, -99.518473, 9.801714, 100.000000
673, -100.000000, 0.000000, 100.000000
674, -99.518473, -9.801714, 100.000000
675, -98.078528, -19.509032, 100.000000
676, -95.694034, -29.028468, 100.000000
677, -92.387953, -38.268343, 100.000000
678, -88.192126, -47.139674, 100.000000
679, -83.146961, -55.557023, 100.000000
680, -77.301045, -63.439328, 100.000000
681, -70.710678, -70.710678, 100.000000
682, -63.439328, -77.301045, 100.000000
683, -55.557023, -83.146961, 100.000000
684, -47.139674, -88.192126, 100.000000
685, -38.268343, -92.387953, 100.000000
686, -29.028468, -95.694034, 100.000000
687, -19.509032, -98.078528, 100.000000
688, -9.801714, -99.518473, 100.000000
689, -0.000000, -100.000000, 100.000000
690, 9.801714, -99.518473, 100.000000
691, 19.509032, -98.078528, 100.000000
692, 29.028468, -95.694034, 100.000000
693, 38.268343, -92.387953, 100.000000
694, 47.139674, -88.192126, 100.000000
695, 55.557023, -83.146961, 100.000000
696, 63.439328, -77.301045, 100.000000
697, 70.710678, -70.710678, 100.000000
698, 77.301045, -63.439328, 100.000000
699, 83.146961, -55.557023, 100.000000
700, 88.192126, -47.139674, 100.000000
701, 92.387953, -38.268343, 100.000000
702, 95.694034, -29.028468, 100.000000
703, 98.078528, -19.509032, 100.000000
704, 99.518473, -9.801714, 100.000000
705, 100.000000, 0.000000, 110.000000
706, 99.518473, 9.801714, 110.000000
707, 98.078528, 19.509032, 110.000000
708, 95.694034, 29.028468, 110.000000
709, 92.387953, 38.268343, 110.000000
710, 88.192126, 47.139674, 110.000000
711, 83.146961, 55.557023, 110.000000
712, 77.301045, 63.439328, 110.000000
713, 70.710678, 70.710678, 110.000000
714, 63.439328, 77.301045, 110.000000
715, 55.557023, 83.146961, 110.000000
716, 47.139674, 88.192126, 110.000000
717, 38.268343, 92.387953, 110.000000
718, 29.028468, 95.694034, 110.000000
719, 19.509032, 98.078528, 110.000000
720, 9.801714, 99.518473, 110.000000
721, 0.000000, 100.000000, 110.000000
722, -9.801714, 99.518473, 110.000000
723, -19.509032, 98.078528, 110.000000
724, -29.028468, 95.694034, 110.000000
725, -38.268343, 92.387953, 110.000000
726, -47.139674, 88.192126, 110.000000
727, -55.557023, 83.146961, 110.000000
728, -63.439328, 77.301045, 110.000000
729, -70.710678, 70.710678, 110.000000
730, -77.301045, 63.439328, 110.000000
731, -83.146961, 55.557023, 110.000000
732, -88.192126, 47.139674, 110.000000
733, -92.387953, 38.268343, 110.000000
734, -95.694034, 29.028468, 110.000000
735, -98.078528, 19.509032, 110.000000
736, -99.518473, 9.801714, 110.000000
737, -100.000000, 0.000000, 110.000000
738, -99.518473, -9.801714, 110.000000
739, -98.078528, -19.509032, 110.000000
740, -95.694034, -29.028468, 110.000000
741, -92.387953, -38.268343, 110.000000
742, -88.192126, -47.139674, 110.000000
743, -83.146961, -55.557023, 110.000000
744, -77.301045, -63.439328, 110.000000
745, -70.710678, -70.710678, 110.000000
746, -63.439328, -77.301045, 110.000000
747, -55.557023, -83.146961, 110.000000
748, -47.139674, -88.192126, 110.000000
749, -38.268343, -92.387953, 110.000000
750, -29.028468, -95.694034, 110.000000
751, -19.509032, -98.078528, 110.000000
752, -9.801714, -99.518473, 110.000000
753, -0.000000, -100.000000, 110.000000
754, 9.801714, -99.518473, 110.000000
755, 19.509032, -98.078528, 110.000000
756, 29.028468, -95.694034, 110.000000
757, 38.268343, -92.387953, 110.000000
758, 47.139674, -88.192126, 110.000000
759, 55.557023, -83.146961, 110.000000
760, 63.439328, -77.301045, 110.000000
761, 70.710678, -70.710678, 110.000000
762, 77.301045, -63.439328, 110.000000
763, 83.146961, -55.557023, 110.000000
764, 88.192126, -47.139674, 110.000000
765, 92.387953, -38.268343, 110.000000
766, 95.694034, -29.028468, 110.000000
767, 98.078528, -19.509032, 110.000000
768, 99.518473, -9.801714, 110.000000
769, 100.000000, 0.000000, 120.000000
770, 99.518473, 9.801714, 120.000000
771, 98.078528, 19.509032, 120.000000
772, 95.694034, 29.028468, 120.000000
773, 92.387953, 38.268343, 120.000000
774, 88.192126, 47.139674, 120.000000
775, 83.146961, 55.557023, 120.000000
776, 77.301045, 63.439328, 120.000000
777, 70.710678, 70.710678, 120.000000
778, 63.439328, 77.301045, 120.000000
779, 55.557023, 83.146961, 120.000000
780, 47.139674, 88.192126, 120.000000
781, 38.268343, 92.387953, 120.000000
782, 29.028468, 95.694034, 120.000000
783, 19.509032, 98.078528, 120.000000
784, 9.801714, 99.518473, 120.000000
785, 0.000000, 100.000000, 120.000000
786, -9.801714, 99.518473, 120.000000
787, -19.509032, 98.078528, 120.000000
788, -29.028468, 95.694034, 120.000000
789, -38.268343, 92.387953, 120.000000
790, -47.139674, 88.192126, 120.000000
791, -55.557023, 83.146961, 120.000000
792, -63.439328, 77.301045, 120.000000
793, -70.710678, 70.710678, 120.000000
794, -77.301045, 63.439328, 120.000000
795, -83.146961, 55.557023, 120.000000
796, -88.192126, 47.139674, 120.000000
797, -92.387953, 38.268343, 120.000000
798, -95.694034, 29.028468, 120.000000
799, -98.078528, 19.509032, 120.000000
800, -99.518473, 9.801714, 120.000000
801, -100.000000, 0.000000, 120.000000
802, -99.518473, -9.801714, 120.000000
803, -98.078528, -19.509032, 120.000000
804, -95.694034, -29.028468, 120.000000
805, -92.387953, -38.268343, 120.000000
806, -88.192126, -47.139674, 120.000000
807, -83.146961, -55.557023, 120.000000
808, -77.301045, -63.439328, 120.000000
809, -70.710678, -70.710678, 120.000000
810, -63.439328, -77.301045, 120.000000
811, -55.557023, -83.146961, 120.000000
812, -47.139674, -88.192126, 120.000000
813, -38.268343, -92.387953, 120.000000
814, -29.028468, -95.694034, 120.000000
815, -19.509032, -98.078528, 120.000000
816, -9.801714, -99.518473, 120.000000
817, -0.000000, -100.000000, 120.000000
818, 9.801714, -99.518473, 120.000000
819, 19.509032, -98.078528, 120.000000
820, 29.028468, -95.694034, 120.000000
821, 38.268343, -92.387953, 120.000000
822, 47.139674, -88.192126, 120.000000
823, 55.557023, -83.146961, 120.000000
824, 63.439328, -77.301045, 120.000000
825, 70.710678, -70.710678, 120.000000
826, 77.301045, -63.439328, 120.000000
827, 83.146961, -55.557023, 120.000000
828, 88.192126, -47.139674, 120.000000
829, 92.387953, -38.268343, 120.000000
830, 95.694034, -29.028468, 120.000000
831, 98.078528, -19.509032, 120.000000
832, 99.518473, -9.801714, 120.000000
833, 100.000000, 0.000000, 130.000000
834, 99.518473, 9.801714, 130.000000
835, 98.078528, 19.509032, 130.000000
836, 95.694034, 29.028468, 130.000000
837, 92.387953, 38.268343, 130.000000
838, 88.192126, 47.139674, 130.000000
839, 83.146961, 55.557023, 130.000000
840, 77.301045, 63.439328, 130.000000
841, 70.710678, 70.710678, 130.000000
842, 63.439328, 77.301045, 130.000000
843, 55.557023, 83.146961, 130.000000
844, 47.139674, 88.192126, 130.000000
845, 38.268343, 92.387953, 130.000000
846, 29.028468, 95.694034, 130.000000
847, 19.509032, 98.078528, 130.000000
848, 9.801714, 99.518473, 130.000000
849, 0.000000, 100.000000, 130.000000
850, -9.801714, 99.518473, 130.000000
851, -19.509032, 98.078528, 130.000000
852, -29.028468, 95.694034, 130.000000
853, -38.268343, 92.387953, 130.000000
854, -47.139674, 88.192126, 130.000000
855, -55.557023, 83.146961, 130.000000
856, -63.439328, 77.301045, 130.000000
857, -70.710678, 70.710678, 130.000000
858, -77.301045, 63.439328, 130.000000
859, -83.146961, 55.557023, 130.000000
860, -88.192126, 47.139674, 130.000000
861, -92.387953, 38.268343, 130.000000
862, -95.694034, 29.028468, 130.000000
863, -98.078528, 19.509032, 130.000000
864, -99.518473, 9.801714, 130.000000
865, -100.000000, 0.000000, 130.000000
866, -99.518473, -9.801714, 130.000000
867, -98.078528, -19.509032, 130.000000
868, -95.694034, -29.028468, 130.000000
869, -92.387953, -38.268343, 130.000000
870, -88.192126, -47.139674, 130.000000
871, -83.146961, -55.557023, 130.000000
872, -77.301045, -63.439328, 130.000000
873, -70.710678, -70.710678, 130.000000
874, -63.439328, -77.301045, 130.000000
875, -55.557023, -83.146961, 130.000000
876, -47.139674, -88.192126, 130.000000
877, -38.268343, -92.387953, 130.000000
878, -29.028468, -95.694034, 130.000000
879, -19.509032, -98.078528, 130.000000
880, -9.801714, -99.518473, 130.000000
881, -0.000000, -100.000000, 130.000000
882, 9.801714, -99.518473, 130.000000
883, 19.509032, -98.078528, 130.000000
884, 29.028468, -95.694034, 130.000000
885, 38.268343, -92.387953, 130.000000
886, 47.139674, -88.192126, 130.000000
887, 55.557023, -83.146961, 130.000000
888, 63.439328, -77.301045, 130.000000
889, 70.710678, -70.710678, 130.000000
890, 77.301045, -63.439328, 130.000000
891, 83.146961, -55.557023, 130.000000
892, 88.192126, -47.139674, 130.000000
893, 92.387953, -38.268343, 130.000000
894, 95.694034, -29.028468, 130.000000
895, 98.078528, -19.509032, 130.000000
896, 99.518473, -9.801714, 130.000000
897, 100.000000, 0.000000, 140.000000
898, 99.518473, 9.801714, 140.000000
899, 98.078528, 19.509032, 140.000000
900, 95.694034, 29.028468, 140.000000
901, 92.387953, 38.268343, 140.000000
902, 88.192126, 47.139674, 140.000000
903, 83.146961, 55.557023, 140.000000
904, 77.301045, 63.439328, 140.000000
905, 70.710678, 70.710678, 140.000000
906, 63.439328, 77.301045, 140.000000
907, 55.557023, 83.146961, 140.000000
908, 47.139674, 88.192126, 140.000000
909, 38.268343, 92.387953, 140.000000
910, 29.028468, 95.694034, 140.000000
911, 19.509032, 98.078528, 140.000000
912, 9.801714, 99.518473, 140.000000
913, 0.000000, 100.000000, 140.000000
914, -9.801714, 99.518473, 140.000000
915, -19.509032, 98.078528, 140.000000
916, -29.028468, 95.694034, 140.000000
917, -38.268343, 92.387953, 140.000000
918, -47.139674, 88.192126, 140.000000
919, -55.557023, 83.146961, 140.000000
920, -63.439328, 77.301045, 140.000000
921, -70.710678, 70.710678, 140.000000
922, -77.301045, 63.439328, 140.000000
923, -83.146961, 55.557023, 140.000000
924, -88.192126, 47.139674, 140.000000
925, -92.387953, 38.268343, 140.000000
926, -95.694034, 29.028468, 140.000000
927, -98.078528, 19.509032, 140.000000
928, -99.518473, 9.801714, 140.000000
929, -100.000000, 0.000000, 140.000000
930, -99.518473, -9.801714, 140.000000
931, -98.078528, -19.509032, 140.000000
932, -95.694034, -29.028468, 140.000000
933, -92.387953, -38.268343, 140.000000
934, -88.192126, -47.139674, 140.000000
935, -83.146961, -55.557023, 140.000000
936, -77.301045, -63.439328, 140.000000
937, -70.710678, -70.710678, 140.000000
938, -63.439328, -77.301045, 140.000000
939, -55.557023, -83.146961, 140.000000
940, -47.139674, -88.192126, 140.000000
941, -38.268343, -92.387953, 140.000000
942, -29.028468, -95.694034, 140.000000
943, -19.509032, -98.078528, 140.000000
944, -9.801714, -99.518473, 140.000000
945, -0.000000, -100.000000, 140.000000
946, 9.801714, -99.518473, 140.000000
947, 19.509032, -98.078528, 140.000000
948, 29.028468, -95.694034, 140.000000
949, 38.268343, -92.387953, 140.000000
950, 47.139674, -88.192126, 140.000000
951, 55.557023, -83.146961, 140.000000
952, 63.439328, -77.301045, 140.000000
953, 70.710678, -70.710678, 140.000000
954, 77.301045, -63.439328, 140.000000
955, 83.146961, -55.557023, 140.000000
956, 88.192126, -47.139674, 140.000000
957, 92.387953, -38.268343, 140.000000
958, 95.694034, -29.028468, 140.000000
959, 98.078528, -19.509032, 140.000000
960, 99.518473, -9.801714, 140.000000
961, 100.000000, 0.000000, 150.000000
962, 99.518473, 9.801714, 150.000000
963, 98.078528, 19.509032, 150.000000
964, 95.694034, 29.028468, 150.000000
965, 92.387953, 38.268343, 150.000000
966, 88.192126, 47.139674, 150.000000
967, 83.146961, 55.557023, 150.000000
968, 77.301045, 63.439328, 150.000000
969, 70.710678, 70.710678, 150.000000
970, 63.439328, 77.301045, 150.000000
971, 55.557023, 83.146961, 150.000000
972, 47.139674, 88.192126, 150.000000
973, 38.268343, 92.387953, 150.000000
974, 29.028468, 95.694034, 150.000000
975, 19.509032, 98.078528, 150.000000
976, 9.801714, 99.518473, 150.000000
977, 0.000000, 100.000000, 150.000000
978, -9.801714, 99.518473, 150.000000
979, -19.509032, 98.078528, 150.000000
980, -29.028468, 95.694034, 150.000000
981, -38.268343, 92.387953, 150.000000
982, -47.139674, 88.192126, 150.000000
983, -55.557023, 83.146961, 150.000000
984, -63.439328, 77.301045, 150.000000
985, -70.710678, 70.710678, 150.000000
986, -77.301045, 63.439328, 150.000000
987, -83.146961, 55.557023, 150.000000
988, -88.192126, 47.139674, 150.000000
989, -92.387953, 38.268343, 150.000000
990, -95.694034, 29.028468, 150.000000
991, -98.078528, 19.509032, 150.000000
992, -99.518473, 9.801714, 150.000000
993, -100.000000, 0.000000, 150.000000
994, -99.518473, -9.801714, 150.000000
995, -98.078528, -19.509032, 150.000000
996, -95.694034, -29.028468, 150.000000
997, -92.387953, -38.268343, 150.000000
998, -88.192126, -47.139674, 150.000000
999, -83.146961, -55.557023, 150.000000
1000, -77.301045, -63.439328, 150.000000
1001, -70.710678, -70.710678, 150.000000
1002, -63.439328, -77.301045, 150.000000
1003, -55.557023, -83.146961, 150.000000
1004, -47.139674, -88.192126, 150.000000
1005, -38.268343, -92.387953, 150.000000
1006, -29.028468, -95.694034, 150.000000
1007, -19.509032, -98.078528, 150.000000
1008, -9.801714, -99.518473, 150.000000
1009, -0.000000, -100.000000, 150.000000
1010, 9.801714, -99.518473, 150.000000
1011, 19.509032, -98.078528, 150.000000
1012, 29.028468, -95.694034, 150.000000
1013, 38.268343, -92.387953, 150.000000
1014, 47.139674, -88.192126, 150.000000
1015, 55.557023, -83.146961, 150.000000
1016, 63.439328, -77.301045, 150.000000
1017, 70.710678, -70.710678, 150.000000
1018, 77.301045, -63.439328, 150.000000
1019, 83.146961, -55.557023, 150.000000
1020, 88.192126, -47.139674, 150.000000
1021, 92.387953, -38.268343, 150.000000
1022, 95.694034, -29.028468, 150.000000
1023, 98.078528, -19.509032, 150.000000
1024, 99.518473, -9.801714, 150.000000
1025, 100.000000, 0.000000, 160.000000
1026, 99.518473, 9.801714, 160.000000
1027, 98.078528, 19.509032, 160.000000
1028, 95.694034, 29.028468, 160.000000
1029, 92.387953, 38.268343, 160.000000
1030, 88.192126, 47.139674, 160.000000
1031, 83.146961, 55.557023, 160.000000
1032, 77.301045, 63.439328, 160.000000
1033, 70.710678, 70.710678, 160.000000
1034, 63.439328, 77.301045, 160.000000
1035, 55.557023, 83.146961, 160.000000
1036, 47.139674, 88.192126, 160.000000
1037, 38.268343, 92.387953, 160.000000
1038, 29.028468, 95.694034, 160.000000
1039, 19.509032, 98.078528, 160.000000
1040, 9.801714, 99.518473, 160.000000
1041, 0.000000, 100.000000, 160.000000
1042, -9.801714, 99.518473, 160.000000
1043, -19.509032, 98.078528, 160.000000
1044, -29.028468, 95.694034, 160.000000
1045, -38.268343, 92.387953, 160.000000
1046, -47.139674, 88.192126, 160.000000
1047, -55.557023, 83.146961, 160.000000
1048, -63.439328, 77.301045, 160.000000
1049, -70.710678, 70.710678, 160.000000
1050, -77.301045, 63.439328, 160.000000
1051, -83.146961, 55.557023, 160.000000
1052, -88.192126, 47.139674, 160.000000
1053, -92.387953, 38.268343, 160.000000
1054, -95.694034, 29.028468, 160.000000
1055, -98.078528, 19.509032, 160.000000
1056, -99.518473, 9.801714, 160.000000
1057, -100.000000, 0.000000, 160.000000
1058, -99.518473, -9.801714, 160.000000
1059, -98.078528, -19.509032, 160.000000
1060, -95.694034, -29.028468, 160.000000
1061, -92.387953, -38.268343, 160.000000
1062, -88.192126, -47.139674, 160.000000
1063, -83.146961, -55.557023, 160.000000
1064, -77.301045, -63.439328, 160.000000
1065, -70.710678, -70.710678, 160.000000
1066, -63.439328, -77.301045, 160.000000
1067, -55.557023, -83.146961, 160.000000
1068, -47.139674, -88.192126, 160.000000
1069, -38.268343, -92.387953, 160.000000
1070, -29.028468, -95.694034, 160.000000
1071, -19.509032, -98.078528, 160.000000
1072, -9.801714, -99.518473, 160.000000
1073, -0.000000, -100.000000, 160.000000
1074, 9.801714, -99.518473, 160.000000
1075, 19.509032, -98.078528, 160.000000
1076, 29.028468, -95.694034, 160.000000
1077, 38.268343, -92.387953, 160.000000
1078, 47.139674, -88.192126, 160.000000
1079, 55.557023, -83.146961, 160.000000
1080, 63.439328, -77.301045, 160.000000
1081, 70.710678, -70.710678, 160.000000
1082, 77.301045, -63.439328, 160.000000
1083, 83.146961, -55.557023, 160.000000
1084, 88.192126, -47.139674, 160.000000
1085, 92.387953, -38.268343, 160.000000
1086, 95.694034, -29.028468, 160.000000
1087, 98.078528, -19.509032, 160.000000
1088, 99.518473, -9.801714, 160.000000
1089, 100.000000, 0.000000, 170.000000
1090, 99.518473, 9.801714, 170.000000
1091, 98.078528, 19.509032, 170.000000
1092, 95.694034, 29.028468, 170.000000
1093, 92.387953, 38.268343, 170.000000
1094, 88.192126, 47.139674, 170.000000
1095, 83.146961, 55.557023, 170.000000
1096, 77.301045, 63.439328, 170.000000
1097, 70.710678, 70.710678, 170.000000
1098, 63.439328, 77.301045, 170.000000
1099, 55.557023, 83.146961, 170.000000
1100, 47.139674, 88.192126, 170.000000
1101, 38.268343, 92.387953, 170.000000
1102, 29.028468, 95.694034, 170.000000
1103, 19.509032, 98.078528, 170.000000
1104, 9.801714, 99.518473, 170.000000
1105, 0.000000, 100.000000, 170.000000
1106, -9.801714, 99.518473, 170.000000
1107, -19.509032, 98.078528, 170.000000
1108, -29.028468, 95.694034, 170.000000
1109, -38.268343, 92.387953, 170.000000
1110, -47.139674, 88.192126, 170.000000
1111, -55.557023, 83.146961, 170.000000
1112, -63.439328, 77.301045, 170.000000
1113, -70.710678, 70.710678, 170.000000
1114, -77.301045, 63.439328, 170.000000
1115, -83.146961, 55.557023, 170.000000
1116, -88.192126, 47.139674, 170.000000
1117, -92.387953, 38.268343, 170.000000
1118, -95.694034, 29.028468, 170.000000
1119, -98.078528, 19.509032, 170.000000
1120, -99.518473, 9.801714, 170.000000
1121, -100.000000, 0.000000, 170.000000
1122, -99.518473, -9.801714, 170.000000
1123, -98.078528, -19.509032, 170.000000
1124, -95.694034, -29.028468, 170.000000
1125, -92.387953, -38.268343, 170.000000
1126, -88.192126, -47.139674, 170.000000
1127, -83.146961, -55.557023, 170.000000
1128, -77.301045, -63.439328, 170.000000
1129, -70.710678, -70.710678, 170.000000
1130, -63.439328, -77.301045, 170.000000
1131, -55.557023, -83.146961, 170.000000
1132, -47.139674, -88.192126, 170.000000
1133, -38.268343, -92.387953, 170.000000
1134, -29.028468, -95.694034, 170.000000
1135, -19.509032, -98.078528, 170.000000
1136, -9.801714, -99.518473, 170.000000
1137, -0.000000, -100.000000, 170.000000
1138, 9.801714, -99.518473, 170.000000
1139, 19.509032, -98.078528, 170.000000
1140, 29.028468, -95.694034, 170.000000
1141, 38.268343, -92.387953, 170.000000
1142, 47.139674, -88.192126, 170.000000
1143, 55.557023, -83.146961, 170.000000
1144, 63.439328, -77.301045, 170.000000
1145, 70.710678, -70.710678, 170.000000
1146, 77.301045, -63.439328, 170.000000
1147, 83.146961, -55.557023, 170.000000
1148, 88.192126, -47.139674, 170.000000
1149, 92.387953, -38.268343, 170.000000
1150, 95.694034, -29.028468, 170.000000
1151, 98.078528, -19.509032, 170.000000
1152, 99.518473, -9.801714, 170.000000
1153, 100.000000, 0.000000, 180.000000
1154, 99.518473, 9.801714, 180.000000
1155, 98.078528, 19.509032, 180.000000
1156, 95.694034, 29.028468, 180.000000
1157, 92.387953, 38.268343, 180.000000
1158, 88.192126, 47.139674, 180.000000
1159, 83.146961, 55.557023, 180.000000
1160, 77.301045, 63.439328, 180.000000
1161, 70.710678, 70.710678, 180.000000
1162, 63.439328, 77.301045, 180.000000
1163, 55.557023, 83.146961, 180.000000
1164, 47.139674, 88.192126, 180.000000
1165, 38.268343, 92.387953, 180.000000
1166, 29.028468, 95.694034, 180.000000
1167, 19.509032, 98.078528, 180.000000
1168, 9.801714, 99.518473, 180.000000
1169, 0.000000, 100.000000, 180.000000
1170, -9.801714, 99.518473, 180.000000
1171, -19.509032, 98.078528, 180.000000
1172, -29.028468, 95.694034, 180.000000
1173, -38.268343, 92.387953, 180.000000
1174, -47.139674, 88.192126, 180.000000
1175, -55.557023, 83.146961, 180.000000
1176, -63.439328, 77.301045, 180.000000
1177, -70.710678, 70.710678, 180.000000
1178, -77.301045, 63.439328, 180.000000
1179, -83.146961, 55.557023, 180.000000
1180, -88.192126, 47.139674, 180.000000
1181, -92.387953, 38.268343, 180.000000
1182, -95.694034, 29.028468, 180.000000
1183, -98.078528, 19.509032, 180.000000
1184, -99.518473, 9.801714, 180.000000
1185, -100.000000, 0.000000, 180.000000
1186, -99.518473, -9.801714, 180.000000
1187, -98.078528, -19.509032, 180.000000
1188, -95.694034, -29.028468, 180.000000
1189, -92.387953, -38.268343, 180.000000
1190, -88.192126, -47.139674, 180.000000
1191, -83.146961, -55.557023, 180.000000
1192, -77.301045, -63.439328, 180.000000
1193, -70.710678, -70.710678, 180.000000
1194, -63.439328, -77.301045, 180.000000
1195, -55.557023, -83.146961, 180.000000
1196, -47.139674, -88.192126, 180.000000
1197, -38.268343, -92.387953, 180.000000
1198, -29.028468, -95.694034, 180.000000
1199, -19.509032, -98.078528, 180.000000
1200, -9.801714, -99.518473, 180.000000
1201, -0.000000, -100.000000, 180.000000
1202, 9.801714, -99.518473, 180.000000
1203, 19.509032, -98.078528, 180.000000
1204, 29.028468, -95.694034, 180.000000
1205, 38.268343, -92.387953, 180.000000
1206, 47.139674, -88.192126, 180.000000
1207, 55.557023, -83.146961, 180.000000
1208, 63.439328, -77.301045, 180.000000
1209, 70.710678, -70.710678, 180.000000
1210, 77.301045, -63.439328, 180.000000
1211, 83.146961, -55.557023, 180.000000
1212, 88.192126, -47.139674, 180.000000
1213, 92.387953, -38.268343, 180.000000
1214, 95.694034, -29.028468, 180.000000
1215, 98.078528, -19.509032, 180.000000
1216, 99.518473, -9.801714, 180.000000
1217, 100.000000, 0.000000, 190.000000
1218, 99.518473, 9.801714, 190.000000
1219, 98.078528, 19.509032, 190.000000
1220, 95.694034, 29.028468, 190.000000
1221, 92.387953, 38.268343, 190.000000
1222, 88.192126, 47.139674, 190.000000
1223, 83.146961, 55.557023, 190.000000
1224, 77.301045, 63.439328, 190.000000
1225, 70.710678, 70.710678, 190.000000
1226, 63.439328, 77.301045, 190.000000
1227, 55.557023, 83.146961, 190.000000
1228, 47.139674, 88.192126, 190.000000
1229, 38.268343, 92.387953, 190.000000
1230, 29.028468, 95.694034, 190.000000
1231, 19.509032, 98.078528, 190.000000
1232, 9.801714, 99.518473, 190.000000
1233, 0.000000, 100.000000, 190.000000
1234, -9.801714, 99.518473, 190.000000
1235, -19.509032, 98.078528, 190.000000
1236, -29.028468, 95.694034, 190.000000
1237, -38.268343, 92.387953, 190.000000
1238, -47.139674, 88.192126, 190.000000
1239, -55.557023, 83.146961, 190.000000
1240, -63.439328, 77.301045, 190.000000
1241, -70.710678, 70.710678, 190.000000
1242, -77.301045, 63.439328, 190.000000
1243, -83.146961, 55.557023, 190.000000
1244, -88.192126, 47.139674, 190.000000
1245, -92.387953, 38.268343, 190.000000
1246, -95.694034, 29.028468, 190.000000
1247, -98.078528, 19.509032, 190.000000
1248, -99.518473, 9.801714, 190.000000
1249, -100.000000, 0.000000, 190.000000
1250, -99.518473, -9.801714, 190.000000
1251, -98.078528, -19.509032, 190.000000
1252, -95.694034, -29.028468, 190.000000
1253, -92.387953, -38.268343, 190.000000
1254, -88.192126, -47.139674, 190.000000
1255, -83.146961, -55.557023, 190.000000
1256, -77.301045, -63.439328, 190.000000
1257, -70.710678, -70.710678, 190.000000
1258, -63.439328, -77.301045, 190.000000
1259, -55.557023, -83.146961, 190.000000
1260, -47.139674, -88.192126, 190.000000
1261, -38.268343, -92.387953, 190.000000
1262, -29.028468, -95.694034, 190.000000
1263, -19.509032, -98.078528, 190.000000
1264, -9.801714, -99.518473, 190.000000
1265, -0.000000, -100.000000, 190.000000
1266, 9.801714, -99.518473, 190.000000
1267, 19.509032, -98.078528, 190.000000
1268, 29.028468, -95.694034, 190.000000
1269, 38.268343, -92.387953, 190.000000
1270, 47.139674, -88.192126, 190.000000
1271, 55.557023, -83.146961, 190.000000
1272, 63.439328, -77.301045, 190.000000
1273, 70.710678, -70.710678, 190.000000
1274, 77.301045, -63.439328, 190.000000
1275, 83.146961, -55.557023, 190.000000
1276, 88.192126, -47.139674, 190.000000
1277, 92.387953, -38.268343, 190.000000
1278, 95.694034, -29.028468, 190.000000
1279, 98.078528, -19.509032, 190.000000
1280, 99.518473, -9.801714, 190.000000
1281, 100.000000, 0.000000, 200.000000
1282, 99.518473, 9.801714, 200.000000
1283, 98.078528, 19.509032, 200.000000
1284, 95.694034, 29.028468, 200.000000
1285, 92.387953, 38.268343, 200.000000
1286, 88.192126, 47.139674, 200.000000
1287, 83.146961, 55.557023, 200.000000
1288, 77.301045, 63.439328, 200.000000
1289, 70.710678, 70.710678, 200.000000
1290, 63.439328, 77.301045, 200.000000
1291, 55.557023, 83.146961, 200.000000
1292, 47.139674, 88.192126, 200.000000
1293, 38.268343, 92.387953, 200.000000
1294, 29.028468, 95.694034, 200.000000
1295, 19.509032, 98.078528, 200.000000
1296, 9.801714, 99.518473, 200.000000
1297, 0.000000, 100.000000, 200.000000
1298, -9.801714, 99.518473, 200.000000
1299, -19.509032, 98.078528, 200.000000
1300, -29.028468, 95.694034, 200.000000
1301, -38.268343, 92.387953, 200.000000
1302, -47.139674, 88.192126, 200.000000
1303, -55.557023, 83.146961, 200.000000
1304, -63.439328, 77.301045, 200.000000
1305, -70.710678, 70.710678, 200.000000
1306, -77.301045, 63.439328, 200.000000
1307, -83.146961, 55.557023, 200.000000
1308, -88.192126, 47.139674, 200.000000
1309, -92.387953, 38.268343, 200.000000
1310, -95.694034, 29.028468, 200.000000
1311, -98.078528, 19.509032, 200.000000
1312, -99.518473, 9.801714, 200.000000
1313, -100.000000, 0.000000, 200.000000
1314, -99.518473, -9.801714, 200.000000
1315, -98.078528, -19.509032, 200.000000
1316, -95.694034, -29.028468, 200.000000
1317, -92.387953, -38.268343, 200.000000
1318, -88.192126, -47.139674, 200.000000
1319, -83.146961, -55.557023, 200.000000
1320, -77.301045, -63.439328, 200.000000
1321, -70.710678, -70.710678, 200.000000
1322, -63.439328, -77.301045, 200.000000
1323, -55.557023, -83.146961, 200.000000
1324, -47.139674, -88.192126, 200.000000
1325, -38.268343, -92.387953, 200.000000
1326, -29.028468, -95.694034, 200.000000
1327, -19.509032, -98.078528, 200.000000
1328, -9.801714, -99.518473, 200.000000
1329, -0.000000, -100.000000, 200.000000
1330, 9.801714, -99.518473, 200.000000
1331, 19.509032, -98.078528, 200.000000
1332, 29.028468, -95.694034, 200.000000
1333, 38.268343, -92.387953, 200.000000
1334, 47.139674, -88.192126, 200.000000
1335, 55.557023, -83.146961, 200.000000
1336, 63.439328, -77.301045, 200.000000
1337, 70.710678, -70.710678, 200.000000
1338, 77.301045, -63.439328, 200.000000
1339, 83.146961, -55.557023, 200.000000
1340, 88.192126, -47.139674, 200.000000
1341, 92.387953, -38.268343, 200.000000
1342, 95.694034, -29.028468, 200.000000
1343, 98.078528, -19.509032, 200.000000
1344, 99.518473, -9.801714, 200.000000
1345, 100.000000, 0.000000, 210.000000
1346, 99.518473, 9.801714, 210.000000
1347, 98.078528, 19.509032, 210.000000
1348, 95.694034, 29.028468, 210.000000
1349, 92.387953, 38.268343, 210.000000
1350, 88.192126, 47.139674, 210.000000
1351, 83.146961, 55.557023, 210.000000
1352, 77.301045, 63.439328, 210.000000
1353, 70.710678, 70.710678, 210.000000
1354, 63.439328, 77.301045, 210.000000
1355, 55.557023, 83.146961, 210.000000
1356, 47.139674, 88.192126, 210.000000
1357, 38.268343, 92.387953, 210.000000
1358, 29.028468, 95.694034, 210.000000
1359, 19.509032, 98.078528, 210.000000
1360, 9.801714, 99.518473, 210.000000
1361, 0.000000, 100.000000, 210.000000
1362, -9.801714, 99.518473, 210.000000
1363, -19.509032, 98.078528, 210.000000
1364, -29.028468, 95.694034, 210.000000
1365, -38.268343, 92.387953, 210.000000
1366, -47.139674, 88.192126, 210.000000
1367, -55.557023, 83.146961, 210.000000
1368, -63.439328, 77.301045, 210.000000
1369, -70.710678, 70.710678, 210.000000
1370, -77.301045, 63.439328, 210.000000
1371, -83.146961, 55.557023, 210.000000
1372, -88.192126, 47.139674, 210.000000
1373, -92.387953, 38.268343, 210.000000
1374, -95.694034, 29.028468, 210.000000
1375, -98.078528, 19.509032, 210.000000
1376, -99.518473, 9.801714, 210.000000
1377, -100.000000, 0.000000, 210.000000
1378, -99.518473, -9.801714, 210.000000
1379, -98.078528, -19.509032, 210.000000
1380, -95.694034, -29.028468, 210.000000
1381, -92.387953, -38.268343, 210.000000
1382, -88.192126, -47.139674, 210.000000
1383, -83.146961, -55.557023, 210.000000
1384, -77.301045, -63.439328, 210.000000
1385, -70.710678, -70.710678, 210.000000
1386, -63.439328, -77.301045, 210.000000
1387, -55.557023, -83.146961, 210.000000
1388, -47.139674, -88.192126, 210.000000
1389, -38.268343, -92.387953, 210.000000
1390, -29.028468, -95.694034, 210.000000
1391, -19.509032, -98.078528, 210.000000
1392, -9.801714, -99.518473, 210.000000
1393, -0.000000, -100.000000, 210.000000
1394, 9.801714, -99.518473, 210.000000
1395, 19.509032, -98.078528, 210.000000
1396, 29.028468, -95.694034, 210.000000
1397, 38.268343, -92.387953, 210.000000
1398, 47.139674, -88.192126, 210.000000
1399, 55.557023, -83.146961, 210.000000
1400, 63.439328, -77.301045, 210.000000
1401, 70.710678, -70.710678, 210.000000
1402, 77.301045, -63.439328, 210.000000
1403, 83.146961, -55.557023, 210.000000
1404, 88.192126, -47.139674, 210.000000
1405, 92.387953, -38.268343, 210.000000
1406, 95.694034, -29.028468, 210.000000
1407, 98.078528, -19.509032, 210.000000
1408, 99.518473, -9.801714, 210.000000
1409, 100.000000, 0.000000, 220.000000
1410, 99.518473, 9.801714, 220.000000
1411, 98.078528, 19.509032, 220.000000
1412, 95.694034, 29.028468, 220.000000
1413, 92.387953, 38.268343, 220.000000
1414, 88.192126, 47.139674, 220.000000
1415, 83.146961, 55.557023, 220.000000
1416, 77.301045, 63.439328, 220.000000
1417, 70.710678, 70.710678, 220.000000
1418, 63.439328, 77.301045, 220.000000
1419, 55.557023, 83.146961, 220.000000
1420, 47.139674, 88.192126, 220.000000
1421, 38.268343, 92.387953, 220.000000
1422, 29.028468, 95.694034, 220.000000
1423, 19.509032, 98.078528, 220.000000
1424, 9.801714, 99.518473, 220.000000
1425, 0.000000, 100.000000, 220.000000
1426, -9.801714, 99.518473, 220.000000
1427, -19.509032, 98.078528, 220.000000
1428, -29.028468, 95.694034, 220.000000
1429, -38.268343, 92.387953, 220.000000
1430, -47.139674, 88.192126, 220.000000
1431, -55.557023, 83.146961, 220.000000
1432, -63.439328, 77.301045, 220.000000
1433, -70.710678, 70.710678, 220.000000
1434, -77.301045, 63.439328, 220.000000
1435, -83.146961, 55.557023, 220.000000
1436, -88.192126, 47.139674, 220.000000
1437, -92.387953, 38.268343, 220.000000
1438, -95.694034, 29.028468, 220.000000
1439, -98.078528, 19.509032, 220.000000
1440, -99.518473, 9.801714, 220.000000
1441, -100.000000, 0.000000, 220.000000
1442, -99.518473, -9.801714, 220.000000
1443, -98.078528, -19.509032, 220.000000
1444, -95.694034, -29.028468, 220.000000
1445, -92.387953, -38.268343, 220.000000
1446, -88.192126, -47.139674, 220.000000
1447, -83.146961, -55.557023, 220.000000
1448, -77.301045, -63.439328, 220.000000
1449, -70.710678, -70.710678, 220.000000
1450, -63.439328, -77.301045, 220.000000
1451, -55.557023, -83.146961, 220.000000
1452, -47.139674, -88.192126, 220.000000
1453, -38.268343, -92.387953, 220.000000
1454, -29.028468, -95.694034, 220.000000
1455, -19.509032, -98.078528, 220.000000
1456, -9.801714, -99.518473, 220.000000
1457, -0.000000, -100.000000, 220.000000
1458, 9.801714, -99.518473, 220.000000
1459, 19.509032, -98.078528, 220.000000
1460, 29.028468, -95.694034, 220.000000
1461, 38.268343, -92.387953, 220.000000
1462, 47.139674, -88.192126, 220.000000
1463, 55.557023, -83.146961, 220.000000
1464, 63.439328, -77.301045, 220.000000
1465, 70.710678, -70.710678, 220.000000
1466, 77.301045, -63.439328, 220.000000
1467, 83.146961, -55.557023, 220.000000
1468, 88.192126, -47.139674, 220.000000
1469, 92.387953, -38.268343, 220.000000
1470, 95.694034, -29.028468, 220.000000
1471, 98.078528, -19.509032, 220.000000
1472, 99.518473, -9.801714, 220.000000
1473, 100.000000, 0.000000, 230.000000
1474, 99.518473, 9.801714, 230.000000
1475, 98.078528, 19.509032, 230.000000
1476, 95.694034, 29.028468, 230.000000
1477, 92.387953, 38.268343, 230.000000
1478, 88.192126, 47.139674, 230.000000
1479, 83.146961, 55.557023, 230.000000
1480, 77.301045, 63.439328, 230.000000
1481, 70.710678, 70.710678, 230.000000
1482, 63.439328, 77.301045, 230.000000
1483, 55.557023, 83.146961, 230.000000
1484, 47.139674, 88.192126, 230.000000
1485, 38.268343, 92.387953, 230.000000
1486, 29.028468, 95.694034, 230.000000
1487, 19.509032, 98.078528, 230.000000
1488, 9.801714, 99.518473, 230.000000
1489, 0.000000, 100.000000, 230.000000
1490, -9.801714, 99.518473, 230.000000
1491, -19.509032, 98.078528, 230.000000
1492, -29.028468, 95.694034, 230.000000
1493, -38.268343, 92.387953, 230.000000
1494, -47.139674, 88.192126, 230.000000
1495, -55.557023, 83.146961, 230.000000
1496, -63.439328, 77.301045, 230.000000
1497, -70.710678, 70.710678, 230.000000
1498, -77.301045, 63.439328, 230.000000
1499, -83.146961, 55.557023, 230.000000
1500, -88.192126, 47.139674, 230.000000
1501, -92.387953, 38.268343, 230.000000
1502, -95.694034, 29.028468, 230.000000
1503, -98.078528, 19.509032, 230.000000
1504, -99.518473, 9.801714, 230.000000
1505, -100.000000, 0.000000, 230.000000
1506, -99.518473, -9.801714, 230.000000
1507, -98.078528, -19.509032, 230.000000
1508, -95.694034, -29.028468, 230.000000
1509, -92.387953, -38.268343, 230.000000
1510, -88.192126, -47.139674, 230.000000
1511, -83.146961, -55.557023, 230.000000
1512, -77.301045, -63.439328, 230.000000
1513, -70.710678, -70.710678, 230.000000
1514, -63.439328, -77.301045, 230.000000
1515, -55.557023, -83.146961, 230.000000
1516, -47.139674, -88.192126, 230.000000
1517, -38.268343, -92.387953, 230.000000
1518, -29.028468, -95.694034, 230.000000
1519, -19.509032, -98.078528, 230.000000
1520, -9.801714, -99.518473, 230.000000
1521, -0.000000, -100.000000, 230.000000
1522, 9.801714, -99.518473, 230.000000
1523, 19.509032, -98.078528, 230.000000
1524, 29.028468, -95.694034, 230.000000
1525, 38.268343, -92.387953, 230.000000
1526, 47.139674, -88.192126, 230.000000
1527, 55.557023, -83.146961, 230.000000
1528, 63.439328, -77.301045, 230.000000
1529, 70.710678, -70.710678, 230.000000
1530, 77.301045, -63.439328, 230.000000
1531, 83.146961, -55.557023, 230.000000
1532, 88.192126, -47.139674, 230.000000
1533, 92.387953, -38.268343, 230.000000
1534, 95.694034, -29.028468, 230.000000
1535, 98.078528, -19.509032, 230.000000
1536, 99.518473, -9.801714, 230.000000
1537, 100.000000, 0.000000, 240.000000
1538, 99.518473, 9.801714, 240.000000
1539, 98.078528, 19.509032, 240.000000
1540, 95.694034, 29.028468, 240.000000
1541, 92.387953, 38.268343, 240.000000
1542, 88.192126, 47.139674, 240.000000
1543, 83.146961, 55.557023, 240.000000
1544, 77.301045, 63.439328, 240.000000
1545, 70.710678, 70.710678, 240.000000
1546, 63.439328, 77.301045, 240.000000
1547, 55.557023, 83.146961, 240.000000
1548, 47.139674, 88.192126, 240.000000
1549, 38.268343, 92.387953, 240.000000
1550, 29.028468, 95.694034, 240.000000
1551, 19.509032, 98.078528, 240.000000
1552, 9.801714, 99.518473, 240.000000
1553, 0.000000, 100.000000, 240.000000
1554, -9.801714, 99.518473, 240.000000
1555, -19.509032, 98.078528, 240.000000
1556, -29.028468, 95.694034, 240.000000
1557, -38.268343, 92.387953, 240.000000
1558, -47.139674, 88.192126, 240.000000
1559, -55.557023, 83.146961, 240.000000
1560, -63.439328, 77.301045, 240.000000
1561, -70.710678, 70.710678, 240.000000
1562, -77.301045, 63.439328, 240.000000
1563, -83.146961, 55.557023, 240.000000
1564, -88.192126, 47.139674, 240.000000
1565, -92.387953, 38.268343, 240.000000
1566, -95.694034, 29.028468, 240.000000
1567, -98.078528, 19.509032, 240.000000
1568, -99.518473, 9.801714, 240.000000
1569, -100.000000, 0.000000, 240.000000
1570, -99.518473, -9.801714, 240.000000
1571, -98.078528, -19.509032, 240.000000
1572, -95.694034, -29.028468, 240.000000
1573, -92.387953, -38.268343, 240.000000
1574, -88.192126, -47.139674, 240.000000
1575, -83.146961, -55.557023, 240.000000
1576, -77.301045, -63.439328, 240.000000
1577, -70.710678, -70.710678, 240.000000
1578, -63.439328, -77.301045, 240.000000
1579, -55.557023, -83.146961, 240.000000
1580, -47.139674, -88.192126, 240.000000
1581, -38.268343, -92.387953, 240.000000
1582, -29.028468, -95.694034, 240.000000
1583, -19.509032, -98.078528, 240.000000
1584, -9.801714, -99.518473, 240.000000
1585, -0.000000, -100.000000, 240.000000
1586, 9.801714, -99.518473, 240.000000
1587, 19.509032, -98.078528, 240.000000
1588, 29.028468, -95.694034, 240.000000
1589, 38.268343, -92.387953, 240.000000
1590, 47.139674, -88.192126, 240.000000
1591, 55.557023, -83.146961, 240.000000
1592, 63.439328, -77.301045, 240.000000
1593, 70.710678, -70.710678, 240.000000
1594, 77.301045, -63.439328, 240.000000
1595, 83.146961, -55.557023, 240.000000
1596, 88.192126, -47.139674, 240.000000
1597, 92.387953, -38.268343, 240.000000
1598, 95.694034, -29.028468, 240.000000
1599, 98.078528, -19.509032, 240.000000
1600, 99.518473, -9.801714, 240.000000
1601, 100.000000, 0.000000, 250.000000
1602, 99.518473, 9.801714, 250.000000
1603, 98.078528, 19.509032, 250.000000
1604, 95.694034, 29.028468, 250.000000
1605, 92.387953, 38.268343, 250.000000
1606, 88.192126, 47.139674, 250.000000
1607, 83.146961, 55.557023, 250.000000
1608, 77.301045, 63.439328, 250.000000
1609, 70.710678, 70.710678, 250.000000
1610, 63.439328, 77.301045, 250.000000
1611, 55.557023, 83.146961, 250.000000
1612, 47.139674, 88.192126, 250.000000
1613, 38.268343, 92.387953, 250.000000
1614, 29.028468, 95.694034, 250.000000
1615, 19.509032, 98.078528, 250.000000
1616, 9.801714, 99.518473, 250.000000
1617, 0.000000, 100.000000, 250.000000
1618, -9.801714, 99.518473, 250.000000
1619, -19.509032, 98.078528, 250.000000
1620, -29.028468, 95.694034, 250.000000
1621, -38.268343, 92.387953, 250.000000
1622, -47.139674, 88.192126, 250.000000
1623, -55.557023, 83.146961, 250.000000
1624, -63.439328, 77.301045, 250.000000
1625, -70.710678, 70.710678, 250.000000
1626, -77.301045, 63.439328, 250.000000
1627, -83.146961, 55.557023, 250.000000
1628, -88.192126, 47.139674, 250.000000
1629, -92.387953, 38.268343, 250.000000
1630, -95.694034, 29.028468, 250.000000
1631, -98.078528, 19.509032, 250.000000
1632, -99.518473, 9.801714, 250.000000
1633, -100.000000, 0.000000, 250.000000
1634, -99.518473, -9.801714, 250.000000
1635, -98.078528, -19.509032, 250.000000
1636, -95.694034, -29.028468, 250.000000
1637, -92.387953, -38.268343, 250.000000
1638, -88.192126, -47.139674, 250.000000
1639, -83.146961, -55.557023, 250.000000
1640, -77.301045, -63.439328, 250.000000
1641, -70.710678, -70.710678, 250.000000
1642, -63.439328, -77.301045, 250.000000
1643, -55.557023, -83.146961, 250.000000
1644, -47.139674, -88.192126, 250.000000
1645, -38.268343, -92.387953, 250.000000
1646, -29.028468, -95.694034, 250.000000
1647, -19.509032, -98.078528, 250.000000
1648, -9.801714, -99.518473, 250.000000
1649, -0.000000, -100.000000, 250.000000
1650, 9.801714, -99.518473, 250.000000
1651, 19.509032, -98.078528, 250.000000
1652, 29.028468, -95.694034, 250.000000
1653, 38.268343, -92.387953, 250.000000
1654, 47.139674, -88.192126, 250.000000
1655, 55.557023, -83.146961, 250.000000
1656, 63.439328, -77.301045, 250.000000
1657, 70.710678, -70.710678, 250.000000
1658, 77.301045, -63.439328, 250.000000
1659, 83.146961, -55.557023, 250.000000
1660, 88.192126, -47.139674, 250.000000
1661, 92.387953, -38.268343, 250.000000
1662, 95.694034, -29.028468, 250.000000
1663, 98.078528, -19.509032, 250.000000
1664, 99.518473, -9.801714, 250.000000
1665, 100.000000, 0.000000, 260.000000
1666, 99.518473, 9.801714, 260.000000
1667, 98.078528, 19.509032, 260.000000
1668, 95.694034, 29.028468, 260.000000
1669, 92.387953, 38.268343, 260.000000
1670, 88.192126, 47.139674, 260.000000
1671, 83.146961, 55.557023, 260.000000
1672, 77.301045, 63.439328, 260.000000
1673, 70.710678, 70.710678, 260.000000
1674, 63.439328, 77.301045, 260.000000
1675, 55.557023, 83.146961, 260.000000
1676, 47.139674, 88.192126, 260.000000
1677, 38.268343, 92.387953, 260.000000
1678, 29.028468, 95.694034, 260.000000
1679, 19.509032, 98.078528, 260.000000
1680, 9.801714, 99.518473, 260.000000
1681, 0.000000, 100.000000, 260.000000
1682, -9.801714, 99.518473, 260.000000
1683, -19.509032, 98.078528, 260.000000
1684, -29.028468, 95.694034, 260.000000
1685, -38.268343, 92.387953, 260.000000
1686, -47.139674, 88.192126, 260.000000
1687, -55.557023, 83.146961, 260.000000
1688, -63.439328, 77.301045, 260.000000
1689, -70.710678, 70.710678, 260.000000
1690, -77.301045, 63.439328, 260.000000
1691, -83.146961, 55.557023, 260.000000
1692, -88.192126, 47.139674, 260.000000
1693, -92.387953, 38.268343, 260.000000
1694, -95.694034, 29.028468, 260.000000
1695, -98.078528, 19.509032, 260.000000
1696, -99.518473, 9.801714, 260.000000
1697, -100.000000, 0.000000, 260.000000
1698, -99.518473, -9.801714, 260.000000
1699, -98.078528, -19.509032, 260.000000
1700, -95.694034, -29.028468, 260.000000
1701, -92.387953, -38.268343, 260.000000
1702, -88.192126, -47.139674, 260.000000
1703, -83.146961, -55.557023, 260.000000
1704, -77.301045, -63.439328, 260.000000
1705, -70.710678, -70.710678, 260.000000
1706, -63.439328, -77.301045, 260.000000
1707, -55.557023, -83.146961, 260.000000
1708, -47.139674, -88.192126, 260.000000
1709, -38.268343, -92.387953, 260.000000
1710, -29.028468, -95.694034, 260.000000
1711, -19.509032, -98.078528, 260.000000
1712, -9.801714, -99.518473, 260.000000
1713, -0.000000, -100.000000, 260.000000
1714, 9.801714, -99.518473, 260.000000
1715, 19.509032, -98.078528, 260.000000
1716, 29.028468, -95.694034, 260.000000
1717, 38.268343, -92.387953, 260.000000
1718, 47.139674, -88.192126, 260.000000
1719, 55.557023, -83.146961, 260.000000
1720, 63.439328, -77.301045, 260.000000
1721, 70.710678, -70.710678, 260.000000
1722, 77.301045, -63.439328, 260.000000
1723, 83.146961, -55.557023, 260.000000
1724, 88.192126, -47.139674, 260.000000
1725, 92.387953, -38.268343, 260.000000
1726, 95.694034, -29.028468, 260.000000
1727, 98.078528, -19.509032, 260.000000
1728, 99.518473, -9.801714, 260.000000
1729, 100.000000, 0.000000, 270.000000
1730, 99.518473, 9.801714, 270.000000
1731, 98.078528, 19.509032, 270.000000
1732, 95.694034, 29.028468, 270.000000
1733, 92.387953, 38.268343, 270.000000
1734, 88.192126, 47.139674, 270.000000
1735, 83.146961, 55.557023, 270.000000
1736, 77.301045, 63.439328, 270.000000
1737, 70.710678, 70.710678, 270.000000
1738, 63.439328, 77.301045, 270.000000
1739, 55.557023, 83.146961, 270.000000
1740, 47.139674, 88.192126, 270.000000
1741, 38.268343, 92.387953, 270.000000
1742, 29.028468, 95.694034, 270.000000
1743, 19.509032, 98.078528, 270.000000
1744, 9.801714, 99.518473, 270.000000
1745, 0.000000, 100.000000, 270.000000
1746, -9.801714, 99.518473, 270.000000
1747, -19.509032, 98.078528, 270.000000
1748, -29.028468, 95.694034, 270.000000
1749, -38.268343, 92.387953, 270.000000
1750, -47.139674, 88.192126, 270.000000
1751, -55.557023, 83.146961, 270.000000
1752, -63.439328, 77.301045, 270.000000
1753, -70.710678, 70.710678, 270.000000
1754, -77.301045, 63.439328, 270.000000
1755, -83.146961, 55.557023, 270.000000
1756, -88.192126, 47.139674, 270.000000
1757, -92.387953, 38.268343, 270.000000
1758, -95.694034, 29.028468, 270.000000
1759, -98.078528, 19.509032, 270.000000
1760, -99.518473, 9.801714, 270.000000
1761, -100.000000, 0.000000, 270.000000
1762, -99.518473, -9.801714, 270.000000
1763, -98.078528, -19.509032, 270.000000
1764, -95.694034, -29.028468, 270.000000
1765, -92.387953, -38.268343, 270.000000
1766, -88.192126, -47.139674, 270.000000
1767, -83.146961, -55.557023, 270.000000
1768, -77.301045, -63.439328, 270.000000
1769, -70.710678, -70.710678, 270.000000
1770, -63.439328, -77.301045, 270.000000
1771, -55.557023, -83.146961, 270.000000
1772, -47.139674, -88.192126, 270.000000
1773, -38.268343, -92.387953, 270.000000
1774, -29.028468, -95.694034, 270.000000
1775, -19.509032, -98.078528, 270.000000
1776, -9.801714, -99.518473, 270.000000
1777, -0.000000, -100.000000, 270.000000
1778, 9.801714, -99.518473, 270.000000
1779, 19.509032, -98.078528, 270.000000
1780, 29.028468, -95.694034, 270.000000
1781, 38.268343, -92.387953, 270.000000
1782, 47.139674, -88.192126, 270.000000
1783, 55.557023, -83.146961, 270.000000
1784, 63.439328, -77.301045, 270.000000
1785, 70.710678, -70.710678, 270.000000
1786, 77.301045, -63.439328, 270.000000
1787, 83.146961, -55.557023, 270.000000
1788, 88.192126, -47.139674, 270.000000
1789, 92.387953, -38.268343, 270.000000
1790, 95.694034, -29.028468, 270.000000
1791, 98.078528, -19.509032, 270.000000
1792, 99.518473, -9.801714, 270.000000
1793, 100.000000, 0.000000, 280.000000
1794, 99.518473, 9.801714, 280.000000
1795, 98.078528, 19.509032, 280.000000
1796, 95.694034, 29.028468, 280.000000
1797, 92.387953, 38.268343, 280.000000
1798, 88.192126, 47.139674, 280.000000
1799, 83.146961, 55.557023, 280.000000
1800, 77.301045, 63.439328, 280.000000
1801, 70.710678, 70.710678, 280.000000
1802, 63.439328, 77.301045, 280.000000
1803, 55.557023, 83.146961, 280.000000
1804, 47.139674, 88.192126, 280.000000
1805, 38.268343, 92.387953, 280.000000
1806, 29.028468, 95.694034, 280.000000
1807, 19.509032, 98.078528, 280.000000
1808, 9.801714, 99.518473, 280.000000
1809, 0.000000, 100.000000, 280.000000
1810, -9.801714, 99.518473, 280.000000
1811, -19.509032, 98.078528, 280.000000
1812, -29.028468, 95.694034, 280.000000
1813, -38.268343, 92.387953, 280.000000
1814, -47.139674, 88.192126, 280.000000
1815, -55.557023, 83.146961, 280.000000
1816, -63.439328, 77.301045, 280.000000
1817, -70.710678, 70.710678, 280.000000
1818, -77.301045, 63.439328, 280.000000
1819, -83.146961, 55.557023, 280.000000
1820, -88.192126, 47.139674, 280.000000
1821, -92.387953, 38.268343, 280.000000
1822, -95.694034, 29.028468, 280.000000
1823, -98.078528, 19.509032, 280.000000
1824, -99.518473, 9.801714, 280.000000
1825, -100.000000, 0.000000, 280.000000
1826, -99.518473, -9.801714, 280.000000
1827, -98.078528, -19.509032, 280.000000
1828, -95.694034, -29.028468, 280.000000
1829, -92.387953, -38.268343, 280.000000
1830, -88.192126, -47.139674, 280.000000
1831, -83.146961, -55.557023, 280.000000
1832, -77.301045, -63.439328, 280.000000
1833, -70.710678, -70.710678, 280.000000
1834, -63.439328, -77.301045, 280.000000
1835, -55.557023, -83.146961, 280.000000
1836, -47.139674, -88.192126, 280.000000
1837, -38.268343, -92.387953, 280.000000
1838, -29.028468, -95.694034, 280.000000
1839, -19.509032, -98.078528, 280.000000
1840, -9.801714, -99.518473, 280.000000
1841, -0.000000, -100.000000, 280.000000
1842, 9.801714, -99.518473, 280.000000
1843, 19.509032, -98.078528, 280.000000
1844, 29.028468, -95.694034, 280.000000
1845, 38.268343, -92.387953, 280.000000
1846, 47.139674, -88.192126, 280.000000
1847, 55.557023, -83.146961, 280.000000
1848, 63.439328, -77.301045, 280.000000
1849, 70.710678, -70.710678, 280.000000
1850, 77.301045, -63.439328, 280.000000
1851, 83.146961, -55.557023, 280.000000
1852, 88.192126, -47.139674, 280.000000
1853, 92.387953, -38.268343, 280.000000
1854, 95.694034, -29.028468, 280.000000
1855, 98.078528, -19.509032, 280.000000
1856, 99.518473, -9.801714, 280.000000
1857, 100.000000, 0.000000, 290.000000
1858, 99.518473, 9.801714, 290.000000
1859, 98.078528, 19.509032, 290.000000
1860, 95.694034, 29.028468, 290.000000
1861, 92.387953, 38.268343, 290.000000
1862, 88.192126, 47.139674, 290.000000
1863, 83.146961, 55.557023, 290.000000
1864, 77.301045, 63.439328, 290.000000
1865, 70.710678, 70.710678, 290.000000
1866, 63.439328, 77.301045, 290.000000
1867, 55.557023, 83.146961, 290.000000
1868, 47.139674, 88.192126, 290.000000
1869, 38.268343, 92.387953, 290.000000
1870, 29.028468, 95.694034, 290.000000
1871, 19.509032, 98.078528, 290.000000
1872, 9.801714, 99.518473, 290.000000
1873, 0.000000, 100.000000, 290.000000
1874, -9.801714, 99.518473, 290.000000
1875, -19.509032, 98.078528, 290.000000
1876, -29.028468, 95.694034, 290.000000
1877, -38.268343, 92.387953, 290.000000
1878, -47.139674, 88.192126, 290.000000
1879, -55.557023, 83.146961, 290.000000
1880, -63.439328, 77.301045, 290.000000
1881, -70.710678, 70.710678, 290.000000
1882, -77.301045, 63.439328, 290.000000
1883, -83.146961, 55.557023, 290.000000
1884, -88.192126, 47.139674, 290.000000
1885, -92.387953, 38.268343, 290.000000
1886, -95.694034, 29.028468, 290.000000
1887, -98.078528, 19.509032, 290.000000
1888, -99.518473, 9.801714, 290.000000
1889, -100.000000, 0.000000, 290.000000
1890, -99.518473, -9.801714, 290.000000
1891, -98.078528, -19.509032, 290.000000
1892, -95.694034, -29.028468, 290.000000
1893, -92.387953, -38.268343, 290.000000
1894, -88.192126, -47.139674, 290.000000
1895, -83.146961, -55.557023, 290.000000
1896, -77.301045, -63.439328, 290.000000
1897, -70.710678, -70.710678, 290.000000
1898, -63.439328, -77.301045, 290.000000
1899, -55.557023, -83.146961, 290.000000
1900, -47.139674, -88.192126, 290.000000
1901, -38.268343, -92.387953, 290.000000
1902, -29.028468, -95.694034, 290.000000
1903, -19.509032, -98.078528, 290.000000
1904, -9.801714, -99.518473, 290.000000
1905, -0.000000, -100.000000, 290.000000
1906, 9.801714, -99.518473, 290.000000
1907, 19.509032, -98.078528, 290.000000
1908, 29.028468, -95.694034, 290.000000
1909, 38.268343, -92.387953, 290.000000
1910, 47.139674, -88.192126, 290.000000
1911, 55.557023, -83.146961, 290.000000
1912, 63.439328, -77.301045, 290.000000
1913, 70.710678, -70.710678, 290.000000
1914, 77.301045, -63.439328, 290.000000
1915, 83.146961, -55.557023, 290.000000
1916, 88.192126, -47.139674, 290.000000
1917, 92.387953, -38.268343, 290.000000
1918, 95.694034, -29.028468, 290.000000
1919, 98.078528, -19.509032, 290.000000
1920, 99.518473, -9.801714, 290.000000
1921, 100.000000, 0.000000, 300.000000
1922, 99.518473, 9.801714, 300.000000
1923, 98.078528, 19.509032, 300.000000
1924, 95.694034, 29.028468, 300.000000
1925, 92.387953, 38.268343, 300.000000
1926, 88.192126, 47.139674, 300.000000
1927, 83.146961, 55.557023, 300.000000
1928, 77.301045, 63.439328, 300.000000
1929, 70.710678, 70.710678, 300.000000
1930, 63.439328, 77.301045, 300.000000
1931, 55.557023, 83.146961, 300.000000
1932, 47.139674, 88.192126, 300.000000
1933, 38.268343, 92.387953, 300.000000
1934, 29.028468, 95.694034, 300.000000
1935, 19.509032, 98.078528, 300.000000
1936, 9.801714, 99.518473, 300.000000
1937, 0.000000, 100.000000, 300.000000
1938, -9.801714, 99.518473, 300.000000
1939, -19.509032, 98.078528, 300.000000
1940, -29.028468, 95.694034, 300.000000
1941, -38.268343, 92.387953, 300.000000
1942, -47.139674, 88.192126, 300.000000
1943, -55.557023, 83.146961, 300.000000
1944, -63.439328, 77.301045, 300.000000
1945, -70.710678, 70.710678, 300.000000
1946, -77.301045, 63.439328, 300.000000
1947, -83.146961, 55.557023, 300.000000
1948, -88.192126, 47.139674, 300.000000
1949, -92.387953, 38.268343, 300.000000
1950, -95.694034, 29.028468, 300.000000
1951, -98.078528, 19.509032, 300.000000
1952, -99.518473, 9.801714, 300.000000
1953, -100.000000, 0.000000, 300.000000
1954, -99.518473, -9.801714, 300.000000
1955, -98.078528, -19.509032, 300.000000
1956, -95.694034, -29.028468, 300.000000
1957, -92.387953, -38.268343, 300.000000
1958, -88.192126, -47.139674, 300.000000
1959, -83.146961, -55.557023, 300.000000
1960, -77.301045, -63.439328, 300.000000
1961, -70.710678, -70.710678, 300.000000
1962, -63.439328, -77.301045, 300.000000
1963, -55.557023, -83.146961, 300.000000
1964, -47.139674, -88.192126, 300.000000
1965, -38.268343, -92.387953, 300.000000
1966, -29.028468, -95.694034, 300.000000
1967, -19.509032, -98.078528, 300.000000
1968, -9.801714, -99.518473, 300.000000
1969, -0.000000, -100.000000, 300.000000
1970, 9.801714, -99.518473, 300.000000
1971, 19.509032, -98.078528, 300.000000
1972, 29.028468, -95.694034, 300.000000
1973, 38.268343, -92.387953, 300.000000
1974, 47.139674, -88.192126, 300.000000
1975, 55.557023, -83.146961, 300.000000
1976, 63.439328, -77.301045, 300.000000
1977, 70.710678, -70.710678, 300.000000
1978, 77.301045, -63.439328, 300.000000
1979, 83.146961, -55.557023, 300.000000
1980, 88.192126, -47.139674, 300.000000
1981, 92.387953, -38.268343, 300.000000
1982, 95.694034, -29.028468, 300.000000
1983, 98.078528, -19.509032, 300.000000
1984, 99.518473, -9.801714, 300.000000
1985, 100.000000, 0.000000, 310.000000
1986, 99.518473, 9.801714, 310.000000
1987, 98.078528, 19.509032, 310.000000
1988, 95.694034, 29.028468, 310.000000
1989, 92.387953, 38.268343, 310.000000
1990, 88.192126, 47.139674, 310.000000
1991, 83.146961, 55.557023, 310.000000
1992, 77.301045, 63.439328, 310.000000
1993, 70.710678, 70.710678, 310.000000
1994, 63.439328, 77.301045, 310.000000
1995, 55.557023, 83.146961, 310.000000
1996, 47.139674, 88.192126, 310.000000
1997, 38.268343, 92.387953, 310.000000
1998, 29.028468, 95.694034, 310.000000
1999, 19.509032, 98.078528, 310.000000
2000, 9.801714, 99.518473, 310.000000
2001, 0.000000, 100.000000, 310.000000
2002, -9.801714, 99.518473, 310.000000
2003, -19.509032, 98.078528, 310.000000
2004, -29.028468, 95.694034, 310.000000
2005, -38.268343, 92.387953, 310.000000
2006, -47.139674, 88.192126, 310.000000
2007, -55.557023, 83.146961, 310.000000
2008, -63.439328, 77.301045, 310.000000
2009, -70.710678, 70.710678, 310.000000
2010, -77.301045, 63.439328, 310.000000
2011, -83.146961, 55.557023, 310.000000
2012, -88.192126, 47.139674, 310.000000
2013, -92.387953, 38.268343, 310.000000
2014, -95.694034, 29.028468, 310.000000
2015, -98.078528, 19.509032, 310.000000
2016, -99.518473, 9.801714, 310.000000
2017, -100.000000, 0.000000, 310.000000
2018, -99.518473, -9.801714, 310.000000
2019, -98.078528, -19.509032, 310.000000
2020, -95.694034, -29.028468, 310.000000
2021, -92.387953, -38.268343, 310.000000
2022, -88.192126, -47.139674, 310.000000
2023, -83.146961, -55.557023, 310.000000
2024, -77.301045, -63.439328, 310.000000
2025, -70.710678, -70.710678, 310.000000
2026, -63.439328, -77.301045, 310.000000
2027, -55.557023, -83.146961, 310.000000
2028, -47.139674, -88.192126, 310.000000
2029, -38.268343, -92.387953, 310.000000
2030, -29.028468, -95.694034, 310.000000
2031, -19.509032, -98.078528, 310.000000
2032, -9.801714, -99.518473, 310.000000
2033, -0.000000, -100.000000, 310.000000
2034, 9.801714, -99.518473, 310.000000
2035, 19.509032, -98.078528, 310.000000
2036, 29.028468, -95.694034, 310.000000
2037, 38.268343, -92.387953, 310.000000
2038, 47.139674, -88.192126, 310.000000
2039, 55.557023, -83.146961, 310.000000
2040, 63.439328, -77.301045, 310.000000
2041, 70.710678, -70.710678, 310.000000
2042, 77.301045, -63.439328, 310.000000
2043, 83.146961, -55.557023, 310.000000
2044, 88.192126, -47.139674, 310.000000
2045, 92.387953, -38.268343, 310.000000
2046, 95.694034, -29.028468, 310.000000
2047, 98.078528, -19.509032, 310.000000
2048, 99.518473, -9.801714, 310.000000
2049, 100.000000, 0.000000, 320.000000
2050, 99.518473, 9.801714, 320.000000
2051, 98.078528, 19.509032, 320.000000
2052, 95.694034, 29.028468, 320.000000
2053, 92.387953, 38.268343, 320.000000
2054, 88.192126, 47.139674, 320.000000
2055, 83.146961, 55.557023, 320.000000
2056, 77.301045, 63.439328, 320.000000
2057, 70.710678, 70.710678, 320.000000
2058, 63.439328, 77.301045, 320.000000
2059, 55.557023, 83.146961, 320.000000
2060, 47.139674, 88.192126, 320.000000
2061, 38.268343, 92.387953, 320.000000
2062, 29.028468, 95.694034, 320.000000
2063, 19.509032, 98.078528, 320.000000
2064, 9.801714, 99.518473, 320.000000
2065, 0.000000, 100.000000, 320.000000
2066, -9.801714, 99.518473, 320.000000
2067, -19.509032, 98.078528, 320.000000
2068, -29.028468, 95.694034, 320.000000
2069, -38.268343, 92.387953, 320.000000
2070, -47.139674, 88.192126, 320.000000
2071, -55.557023, 83.146961, 320.000000
2072, -63.439328, 77.301045, 320.000000
2073, -70.710678, 70.710678, 320.000000
2074, -77.301045, 63.439328, 320.000000
2075, -83.146961, 55.557023, 320.000000
2076, -88.192126, 47.139674, 320.000000
2077, -92.387953, 38.268343, 320.000000
2078, -95.694034, 29.028468, 320.000000
2079, -98.078528, 19.509032, 320.000000
2080, -99.518473, 9.801714, 320.000000
2081, -100.000000, 0.000000, 320.000000
2082, -99.518473, -9.801714, 320.000000
2083, -98.078528, -19.509032, 320.000000
2084, -95.694034, -29.028468, 320.000000
2085, -92.387953, -38.268343, 320.000000
2086, -88.192126, -47.139674, 320.000000
2087, -83.146961, -55.557023, 320.000000
2088, -77.301045, -63.439328, 320.000000
2089, -70.710678, -70.710678, 320.000000
2090, -63.439328, -77.301045, 320.000000
2091, -55.557023, -83.146961, 320.000000
2092, -47.139674, -88.192126, 320.000000
2093, -38.268343, -92.387953, 320.000000
2094, -29.028468, -95.694034, 320.000000
2095, -19.509032, -98.078528, 320.000000
2096, -9.801714, -99.518473, 320.000000
2097, -0.000000, -100.000000, 320.000000
2098, 9.801714, -99.518473, 320.000000
2099, 19.509032, -98.078528, 320.000000
2100, 29.028468, -95.694034, 320.000000
2101, 38.268343, -92.387953, 320.000000
2102, 47.139674, -88.192126, 320.000000
2103, 55.557023, -83.146961, 320.000000
2104, 63.439328, -77.301045, 320.000000
2105, 70.710678, -70.710678, 320.000000
2106, 77.301045, -63.439328, 320.000000
2107, 83.146961, -55.557023, 320.000000
2108, 88.192126, -47.139674, 320.000000
2109, 92.387953, -38.268343, 320.000000
2110, 95.694034, -29.028468, 320.000000
2111, 98.078528, -19.509032, 320.000000
2112, 99.518473, -9.801714, 320.000000
2113, 100.000000, 0.000000, 330.000000
2114, 99.518473, 9.801714, 330.000000
2115, 98.078528, 19.509032, 330.000000
2116, 95.694034, 29.028468, 330.000000
2117, 92.387953, 38.268343, 330.000000
2118, 88.192126, 47.139674, 330.000000
2119, 83.146961, 55.557023, 330.000000
2120, 77.301045, 63.439328, 330.000000
2121, 70.710678, 70.710678, 330.000000
2122, 63.439328, 77.301045, 330.000000
2123, 55.557023, 83.146961, 330.000000
2124, 47.139674, 88.192126, 330.000000
2125, 38.268343, 92.387953, 330.000000
2126, 29.028468, 95.694034, 330.000000
2127, 19.509032, 98.078528, 330.000000
2128, 9.801714, 99.518473, 330.000000
2129, 0.000000, 100.000000, 330.000000
2130, -9.801714, 99.518473, 330.000000
2131, -19.509032, 98.078528, 330.000000
2132, -29.028468, 95.694034, 330.000000
2133, -38.268343, 92.387953, 330.000000
2134, -47.139674, 88.192126, 330.000000
2135, -55.557023, 83.146961, 330.000000
2136, -63.439328, 77.301045, 330.000000
2137, -70.710678, 70.710678, 330.000000
2138, -77.301045, 63.439328, 330.000000
2139, -83.146961, 55.557023, 330.000000
2140, -88.192126, 47.139674, 330.000000
2141, -92.387953, 38.268343, 330.000000
2142, -95.694034, 29.028468, 330.000000
2143, -98.078528, 19.509032, 330.000000
2144, -99.518473, 9.801714, 330.000000
2145, -100.000000, 0.000000, 330.000000
2146, -99.518473, -9.801714, 330.000000
2147, -98.078528, -19.509032, 330.000000
2148, -95.694034, -29.028468, 330.000000
2149, -92.387953, -38.268343, 330.000000
2150, -88.192126, -47.139674, 330.000000
2151, -83.146961, -55.557023, 330.000000
2152, -77.301045, -63.439328, 330.000000
2153, -70.710678, -70.710678, 330.000000
2154, -63.439328, -77.301045, 330.000000
2155, -55.557023, -83.146961, 330.000000
2156, -47.139674, -88.192126, 330.000000
2157, -38.268343, -92.387953, 330.000000
2158, -29.028468, -95.694034, 330.000000
2159, -19.509032, -98.078528, 330.000000
2160, -9.801714, -99.518473, 330.000000
2161, -0.000000, -100.000000, 330.000000
2162, 9.801714, -99.518473, 330.000000
2163, 19.509032, -98.078528, 330.000000
2164, 29.028468, -95.694034, 330.000000
2165, 38.268343, -92.387953, 330.000000
2166, 47.139674, -88.192126, 330.000000
2167, 55.557023, -83.146961, 330.000000
2168, 63.439328, -77.301045, 330.000000
2169, 70.710678, -70.710678, 330.000000
2170, 77.301045, -63.439328, 330.000000
2171, 83.146961, -55.557023, 330.000000
2172, 88.192126, -47.139674, 330.000000
2173, 92.387953, -38.268343, 330.000000
2174, 95.694034, -29.028468, 330.000000
2175, 98.078528, -19.509032, 330.000000
2176, 99.518473, -9.801714, 330.000000
2177, 100.000000, 0.000000, 340.000000
2178, 99.518473, 9.801714, 340.000000
2179, 98.078528, 19.509032, 340.000000
2180, 95.694034, 29.028468, 340.000000
2181, 92.387953, 38.268343, 340.000000
2182, 88.192126, 47.139674, 340.000000
2183, 83.146961, 55.557023, 340.000000
2184, 77.301045, 63.439328, 340.000000
2185, 70.710678, 70.710678, 340.000000
2186, 63.439328, 77.301045, 340.000000
2187, 55.557023, 83.146961, 340.000000
2188, 47.139674, 88.192126, 340.000000
2189, 38.268343, 92.387953, 340.000000
2190, 29.028468, 95.694034, 340.000000
2191, 19.509032, 98.078528, 340.000000
2192, 9.801714, 99.518473, 340.000000
2193, 0.000000, 100.000000, 340.000000
2194, -9.801714, 99.518473, 340.000000
2195, -19.509032, 98.078528, 340.000000
2196, -29.028468, 95.694034, 340.000000
2197, -38.268343, 92.387953, 340.000000
2198, -47.139674, 88.192126, 340.000000
2199, -55.557023, 83.146961, 340.000000
2200, -63.439328, 77.301045, 340.000000
2201, -70.710678, 70.710678, 340.000000
2202, -77.301045, 63.439328, 340.000000
2203, -83.146961, 55.557023, 340.000000
2204, -88.192126, 47.139674, 340.000000
2205, -92.387953, 38.268343, 340.000000
2206, -95.694034, 29.028468, 340.000000
2207, -98.078528, 19.509032, 340.000000
2208, -99.518473, 9.801714, 340.000000
2209, -100.000000, 0.000000, 340.000000
2210, -99.518473, -9.801714, 340.000000
2211, -98.078528, -19.509032, 340.000000
2212, -95.694034, -29.028468, 340.000000
2213, -92.387953, -38.268343, 340.000000
2214, -88.192126, -47.139674, 340.000000
2215, -83.146961, -55.557023, 340.000000
2216, -77.301045, -63.439328, 340.000000
2217, -70.710678, -70.710678, 340.000000
2218, -63.439328, -77.301045, 340.000000
2219, -55.557023, -83.146961, 340.000000
2220, -47.139674, -88.192126, 340.000000
2221, -38.268343, -92.387953, 340.000000
2222, -29.028468, -95.694034, 340.000000
2223, -19.509032, -98.078528, 340.000000
2224, -9.801714, -99.518473, 340.000000
2225, -0.000000, -100.000000, 340.000000
2226, 9.801714, -99.518473, 340.000000
2227, 19.509032, -98.078528, 340.000000
2228, 29.028468, -95.694034, 340.000000
2229, 38.268343, -92.387953, 340.000000
2230, 47.139674, -88.192126, 340.000000
2231, 55.557023, -83.146961, 340.000000
2232, 63.439328, -77.301045, 340.000000
2233, 70.710678, -70.710678, 340.000000
2234, 77.301045, -63.439328, 340.000000
2235, 83.146961, -55.557023, 340.000000
2236, 88.192126, -47.139674, 340.000000
2237, 92.387953, -38.268343, 340.000000
2238, 95.694034, -29.028468, 340.000000
2239, 98.078528, -19.509032, 340.000000
2240, 99.518473, -9.801714, 340.000000
2241, 100.000000, 0.000000, 350.000000
2242, 99.518473, 9.801714, 350.000000
2243, 98.078528, 19.509032, 350.000000
2244, 95.694034, 29.028468, 350.000000
2245, 92.387953, 38.268343, 350.000000
2246, 88.192126, 47.139674, 350.000000
2247, 83.146961, 55.557023, 350.000000
2248, 77.301045, 63.439328, 350.000000
2249, 70.710678, 70.710678, 350.000000
2250, 63.439328, 77.301045, 350.000000
2251, 55.557023, 83.146961, 350.000000
2252, 47.139674, 88.192126, 350.000000
2253, 38.268343, 92.387953, 350.000000
2254, 29.028468, 95.694034, 350.000000
2255, 19.509032, 98.078528, 350.000000
2256, 9.801714, 99.518473, 350.000000
2257, 0.000000, 100.000000, 350.000000
2258, -9.801714, 99.518473, 350.000000
2259, -19.509032, 98.078528, 350.000000
2260, -29.028468, 95.694034, 350.000000
2261, -38.268343, 92.387953, 350.000000
2262, -47.139674, 88.192126, 350.000000
2263, -55.557023, 83.146961, 350.000000
2264, -63.439328, 77.301045, 350.000000
2265, -70.710678, 70.710678, 350.000000
2266, -77.301045, 63.439328, 350.000000
2267, -83.146961, 55.557023, 350.000000
2268, -88.192126, 47.139674, 350.000000
2269, -92.387953, 38.268343, 350.000000
2270, -95.694034, 29.028468, 350.000000
2271, -98.078528, 19.509032, 350.000000
2272, -99.518473, 9.801714, 350.000000
2273, -100.000000, 0.000000, 350.000000
2274, -99.518473, -9.801714, 350.000000
2275, -98.078528, -19.509032, 350.000000
2276, -95.694034, -29.028468, 350.000000
2277, -92.387953, -38.268343, 350.000000
2278, -88.192126, -47.139674, 350.000000
2279, -83.146961, -55.557023, 350.000000
2280, -77.301045, -63.439328, 350.000000
2281, -70.710678, -70.710678, 350.000000
2282, -63.439328, -77.301045, 350.000000
2283, -55.557023, -83.146961, 350.000000
2284, -47.139674, -88.192126, 350.000000
2285, -38.268343, -92.387953, 350.000000
2286, -29.028468, -95.694034, 350.000000
2287, -19.509032, -98.078528, 350.000000
2288, -9.801714, -99.518473, 350.000000
2289, -0.000000, -100.000000, 350.000000
2290, 9.801714, -99.518473, 350.000000
2291, 19.509032, -98.078528, 350.000000
2292, 29.028468, -95.694034, 350.000000
2293, 38.268343, -92.387953, 350.000000
2294, 47.139674, -88.192126, 350.000000
2295, 55.557023, -83.146961, 350.000000
2296, 63.439328, -77.301045, 350.000000
2297, 70.710678, -70.710678, 350.000000
2298, 77.301045, -63.439328, 350.000000
2299, 83.146961, -55.557023, 350.000000
2300, 88.192126, -47.139674, 350.000000
2301, 92.387953, -38.268343, 350.000000
2302, 95.694034, -29.028468, 350.000000
2303, 98.078528, -19.509032, 350.000000
2304, 99.518473, -9.801714, 350.000000
2305, 100.000000, 0.000000, 360.000000
2306, 99.518473, 9.801714, 360.000000
2307, 98.078528, 19.509032, 360.000000
2308, 95.694034, 29.028468, 360.000000
2309, 92.387953, 38.268343, 360.000000
2310, 88.192126, 47.139674, 360.000000
2311, 83.146961, 55.557023, 360.000000
2312, 77.301045, 63.439328, 360.000000
2313, 70.710678, 70.710678, 360.000000
2314, 63.439328, 77.301045, 360.000000
2315, 55.557023, 83.146961, 360.000000
2316, 47.139674, 88.192126, 360.000000
2317, 38.268343, 92.387953, 360.000000
2318, 29.028468, 95.694034, 360.000000
2319, 19.509032, 98.078528, 360.000000
2320, 9.801714, 99.518473, 360.000000
2321, 0.000000, 100.000000, 360.000000
2322, -9.801714, 99.518473, 360.000000
2323, -19.509032, 98.078528, 360.000000
2324, -29.028468, 95.694034, 360.000000
2325, -38.268343, 92.387953, 360.000000
2326, -47.139674, 88.192126, 360.000000
2327, -55.557023, 83.146961, 360.000000
2328, -63.439328, 77.301045, 360.000000
2329, -70.710678, 70.710678, 360.000000
2330, -77.301045, 63.439328, 360.000000
2331, -83.146961, 55.557023, 360.000000
2332, -88.192126, 47.139674, 360.000000
2333, -92.387953, 38.268343, 360.000000
2334, -95.694034, 29.028468, 360.000000
2335, -98.078528, 19.509032, 360.000000
2336, -99.518473, 9.801714, 360.000000
2337, -100.000000, 0.000000, 360.000000
2338, -99.518473, -9.801714, 360.000000
2339, -98.078528, -19.509032, 360.000000
2340, -95.694034, -29.028468, 360.000000
2341, -92.387953, -38.268343, 360.000000
2342, -88.192126, -47.139674, 360.000000
2343, -83.146961, -55.557023, 360.000000
2344, -77.301045, -63.439328, 360.000000
2345, -70.710678, -70.710678, 360.000000
2346, -63.439328, -77.301045, 360.000000
2347, -55.557023, -83.146961, 360.000000
2348, -47.139674, -88.192126, 360.000000
2349, -38.268343, -92.387953, 360.000000
2350, -29.028468, -95.694034, 360.000000
2351, -19.509032, -98.078528, 360.000000
2352, -9.801714, -99.518473, 360.000000
2353, -0.000000, -100.000000, 360.000000
2354, 9.801714, -99.518473, 360.000000
2355, 19.509032, -98.078528, 360.000000
2356, 29.028468, -95.694034, 360.000000
2357, 38.268343, -92.387953, 360.000000
2358, 47.139674, -88.192126, 360.000000
2359, 55.557023, -83.146961, 360.000000
2360, 63.439328, -77.301045, 360.000000
2361, 70.710678, -70.710678, 360.000000
2362, 77.301045, -63.439328, 360.000000
2363, 83.146961, -55.557023, 360.000000
2364, 88.192126, -47.139674, 360.000000
2365, 92.387953, -38.268343, 360.000000
2366, 95.694034, -29.028468, 360.000000
2367, 98.078528, -19.509032, 360.000000
2368, 99.518473, -9.801714, 360.000000
2369, 100.000000, 0.000000, 370.000000
2370, 99.518473, 9.801714, 370.000000
2371, 98.078528, 19.509032, 370.000000
2372, 95.694034, 29.028468, 370.000000
2373, 92.387953, 38.268343, 370.000000
2374, 88.192126, 47.139674, 370.000000
2375, 83.146961, 55.557023, 370.000000
2376, 77.301045, 63.439328, 370.000000
2377, 70.710678, 70.710678, 370.000000
2378, 63.439328, 77.301045, 370.000000
2379, 55.557023, 83.146961, 370.000000
2380, 47.139674, 88.192126, 370.000000
2381, 38.268343, 92.387953, 370.000000
2382, 29.028468, 95.694034, 370.000000
2383, 19.509032, 98.078528, 370.000000
2384, 9.801714, 99.518473, 370.000000
2385, 0.000000, 100.000000, 370.000000
2386, -9.801714, 99.518473, 370.000000
2387, -19.509032, 98.078528, 370.000000
2388, -29.028468, 95.694034, 370.000000
2389, -38.268343, 92.387953, 370.000000
2390, -47.139674, 88.192126, 370.000000
2391, -55.557023, 83.146961, 370.000000
2392, -63.439328, 77.301045, 370.000000
2393, -70.710678, 70.710678, 370.000000
2394, -77.301045, 63.439328, 370.000000
2395, -83.146961, 55.557023, 370.000000
2396, -88.192126, 47.139674, 370.000000
2397, -92.387953, 38.268343, 370.000000
2398, -95.694034, 29.028468, 370.000000
2399, -98.078528, 19.509032, 370.000000
2400, -99.518473, 9.801714, 370.000000
2401, -100.000000, 0.000000, 370.000000
2402, -99.518473, -9.801714, 370.000000
2403, -98.078528, -19.509032, 370.000000
2404, -95.694034, -29.028468, 370.000000
2405, -92.387953, -38.268343, 370.000000
2406, -88.192126, -47.139674, 370.000000
2407, -83.146961, -55.557023, 370.000000
2408, -77.301045, -63.439328, 370.000000
2409, -70.710678, -70.710678, 370.000000
2410, -63.439328, -77.301045, 370.000000
2411, -55.557023, -83.146961, 370.000000
2412, -47.139674, -88.192126, 370.000000
2413, -38.268343, -92.387953, 370.000000
2414, -29.028468, -95.694034, 370.000000
2415, -19.509032, -98.078528, 370.000000
2416, -9.801714, -99.518473, 370.000000
2417, -0.000000, -100.000000, 370.000000
2418, 9.801714, -99.518473, 370.000000
2419, 19.509032, -98.078528, 370.000000
2420, 29.028468, -95.694034, 370.000000
2421, 38.268343, -92.387953, 370.000000
2422, 47.139674, -88.192126, 370.000000
2423, 55.557023, -83.146961, 370.000000
2424, 63.439328, -77.301045, 370.000000
2425, 70.710678, -70.710678, 370.000000
2426, 77.301045, -63.439328, 370.000000
2427, 83.146961, -55.557023, 370.000000
2428, 88.192126, -47.139674, 370.000000
2429, 92.387953, -38.268343, 370.000000
2430, 95.694034, -29.028468, 370.000000
2431, 98.078528, -19.509032, 370.000000
2432, 99.518473, -9.801714, 370.000000
2433, 100.000000, 0.000000, 380.000000
2434, 99.518473, 9.801714, 380.000000
2435, 98.078528, 19.509032, 380.000000
2436, 95.694034, 29.028468, 380.000000
2437, 92.387953, 38.268343, 380.000000
2438, 88.192126, 47.139674, 380.000000
2439, 83.146961, 55.557023, 380.000000
2440, 77.301045, 63.439328, 380.000000
2441, 70.710678, 70.710678, 380.000000
2442, 63.439328, 77.301045, 380.000000
2443, 55.557023, 83.146961, 380.000000
2444, 47.139674, 88.192126, 380.000000
2445, 38.268343, 92.387953, 380.000000
2446, 29.028468, 95.694034, 380.000000
2447, 19.509032, 98.078528, 380.000000
2448, 9.801714, 99.518473, 380.000000
2449, 0.000000, 100.000000, 380.000000
2450, -9.801714, 99.518473, 380.000000
2451, -19.509032, 98.078528, 380.000000
2452, -29.028468, 95.694034, 380.000000
2453, -38.268343, 92.387953, 380.000000
2454, -47.139674, 88.192126, 380.000000
2455, -55.557023, 83.146961, 380.000000
2456, -63.439328, 77.301045, 380.000000
2457, -70.710678, 70.710678, 380.000000
2458, -77.301045, 63.439328, 380.000000
2459, -83.146961, 55.557023, 380.000000
2460, -88.192126, 47.139674, 380.000000
2461, -92.387953, 38.268343, 380.000000
2462, -95.694034, 29.028468, 380.000000
2463, -98.078528, 19.509032, 380.000000
2464, -99.518473, 9.801714, 380.000000
2465, -100.000000, 0.000000, 380.000000
2466, -99.518473, -9.801714, 380.000000
2467, -98.078528, -19.509032, 380.000000
2468, -95.694034, -29.028468, 380.000000
2469, -92.387953, -38.268343, 380.000000
2470, -88.192126, -47.139674, 380.000000
2471, -83.146961, -55.557023, 380.000000
2472, -77.301045, -63.439328, 380.000000
2473, -70.710678, -70.710678, 380.000000
2474, -63.439328, -77.301045, 380.000000
2475, -55.557023, -83.146961, 380.000000
2476, -47.139674, -88.192126, 380.000000
2477, -38.268343, -92.387953, 380.000000
2478, -29.028468, -95.694034, 380.000000
2479, -19.509032, -98.078528, 380.000000
2480, -9.801714, -99.518473, 380.000000
2481, -0.000000, -100.000000, 380.000000
2482, 9.801714, -99.518473, 380.000000
2483, 19.509032, -98.078528, 380.000000
2484, 29.028468, -95.694034, 380.000000
2485, 38.268343, -92.387953, 380.000000
2486, 47.139674, -88.192126, 380.000000
2487, 55.557023, -83.146961, 380.000000
2488, 63.439328, -77.301045, 380.000000
2489, 70.710678, -70.710678, 380.000000
2490, 77.301045, -63.439328, 380.000000
2491, 83.146961, -55.557023, 380.000000
2492, 88.192126, -47.139674, 380.000000
2493, 92.387953, -38.268343, 380.000000
2494, 95.694034, -29.028468, 380.000000
2495, 98.078528, -19.509032, 380.000000
2496, 99.518473, -9.801714, 380.000000
2497, 100.000000, 0.000000, 390.000000
2498, 99.518473, 9.801714, 390.000000
2499, 98.078528, 19.509032, 390.000000
2500, 95.694034, 29.028468, 390.000000
2501, 92.387953, 38.268343, 390.000000
2502, 88.192126, 47.139674, 390.000000
2503, 83.146961, 55.557023, 390.000000
2504, 77.301045, 63.439328, 390.000000
2505, 70.710678, 70.710678, 390.000000
2506, 63.439328, 77.301045, 390.000000
2507, 55.557023, 83.146961, 390.000000
2508, 47.139674, 88.192126, 390.000000
2509, 38.268343, 92.387953, 390.000000
2510, 29.028468, 95.694034, 390.000000
2511, 19.509032, 98.078528, 390.000000
2512, 9.801714, 99.518473, 390.000000
2513, 0.000000, 100.000000, 390.000000
2514, -9.801714, 99.518473, 390.000000
2515, -19.509032, 98.078528, 390.000000
2516, -29.028468, 95.694034, 390.000000
2517, -38.268343, 92.387953, 390.000000
2518, -47.139674, 88.192126, 390.000000
2519, -55.557023, 83.146961, 390.000000
2520, -63.439328, 77.301045, 390.000000
2521, -70.710678, 70.710678, 390.000000
2522, -77.301045, 63.439328, 390.000000
2523, -83.146961, 55.557023, 390.000000
2524, -88.192126, 47.139674, 390.000000
2525, -92.387953, 38.268343, 390.000000
2526, -95.694034, 29.028468, 390.000000
2527, -98.078528, 19.509032, 390.000000
2528, -99.518473, 9.801714, 390.000000
2529, -100.000000, 0.000000, 390.000000
2530, -99.518473, -9.801714, 390.000000
2531, -98.078528, -19.509032, 390.000000
2532, -95.694034, -29.028468, 390.000000
2533, -92.387953, -38.268343, 390.000000
2534, -88.192126, -47.139674, 390.000000
2535, -83.146961, -55.557023, 390.000000
2536, -77.301045, -63.439328, 390.000000
2537, -70.710678, -70.710678, 390.000000
2538, -63.439328, -77.301045, 390.000000
2539, -55.557023, -83.146961, 390.000000
2540, -47.139674, -88.192126, 390.000000
2541, -38.268343, -92.387953, 390.000000
2542, -29.028468, -95.694034, 390.000000
2543, -19.509032, -98.078528, 390.000000
2544, -9.801714, -99.518473, 390.000000
2545, -0.000000, -100.000000, 390.000000
2546, 9.801714, -99.518473, 390.000000
2547, 19.509032, -98.078528, 390.000000
2548, 29.028468, -95.694034, 390.000000
2549, 38.268343, -92.387953, 390.000000
2550, 47.139674, -88.192126, 390.000000
2551, 55.557023, -83.146961, 390.000000
2552, 63.439328, -77.301045, 390.000000
2553, 70.710678, -70.710678, 390.000000
2554, 77.301045, -63.439328, 390.000000
2555, 83.146961, -55.557023, 390.000000
2556, 88.192126, -47.139674, 390.000000
2557, 92.387953, -38.268343, 390.000000
2558, 95.694034, -29.028468, 390.000000
2559, 98.078528, -19.509032, 390.000000
2560, 99.518473, -9.801714, 390.000000
2561, 100.000000, 0.000000, 400.000000
2562, 99.518473, 9.801714, 400.000000
2563, 98.078528, 19.509032, 400.000000
2564, 95.694034, 29.028468, 400.000000
2565, 92.387953, 38.268343, 400.000000
2566, 88.192126, 47.139674, 400.000000
2567, 83.146961, 55.557023, 400.000000
2568, 77.301045, 63.439328, 400.000000
2569, 70.710678, 70.710678, 400.000000
2570, 63.439328, 77.301045, 400.000000
2571, 55.557023, 83.146961, 400.000000
2572, 47.139674, 88.192126, 400.000000
2573, 38.268343, 92.387953, 400.000000
2574, 29.028468, 95.694034, 400.000000
2575, 19.509032, 98.078528, 400.000000
2576, 9.801714, 99.518473, 400.000000
2577, 0.000000, 100.000000, 400.000000
2578, -9.801714, 99.518473, 400.000000
2579, -19.509032, 98.078528, 400.000000
2580, -29.028468, 95.694034, 400.000000
2581, -38.268343, 92.387953, 400.000000
2582, -47.139674, 88.192126, 400.000000
2583, -55.557023, 83.146961, 400.000000
2584, -63.439328, 77.301045, 400.000000
2585, -70.710678, 70.710678, 400.000000
2586, -77.301045, 63.439328, 400.000000
2587, -83.146961, 55.557023, 400.000000
2588, -88.192126, 47.139674, 400.000000
2589, -92.387953, 38.268343, 400.000000
2590, -95.694034, 29.028468, 400.000000
2591, -98.078528, 19.509032, 400.000000
2592, -99.518473, 9.801714, 400.000000
2593, -100.000000, 0.000000, 400.000000
2594, -99.518473, -9.801714, 400.000000
2595, -98.078528, -19.509032, 400.000000
2596, -95.694034, -29.028468, 400.000000
2597, -92.387953, -38.268343, 400.000000
2598, -88.192126, -47.139674, 400.000000
2599, -83.146961, -55.557023, 400.000000
2600, -77.301045, -63.439328, 400.000000
2601, -70.710678, -70.710678, 400.000000
2602, -63.439328, -77.301045, 400.000000
2603, -55.557023, -83.146961, 400.000000
2604, -47.139674, -88.192126, 400.000000
2605, -38.268343, -92.387953, 400.000000
2606, -29.028468, -95.694034, 400.000000
2607, -19.509032, -98.078528, 400.000000
2608, -9.801714, -99.518473, 400.000000
2609, -0.000000, -100.000000, 400.000000
2610, 9.801714, -99.518473, 400.000000
2611, 19.509032, -98.078528, 400.000000
2612, 29.028468, -95.694034, 400.000000
2613, 38.268343, -92.387953, 400.000000
2614, 47.139674, -88.192126, 400.000000
2615, 55.557023, -83.146961, 400.000000
2616, 63.439328, -77.301045, 400.000000
2617, 70.710678, -70.710678, 400.000000
2618, 77.301045, -63.439328, 400.000000
2619, 83.146961, -55.557023, 400.000000
2620, 88.192126, -47.139674, 400.000000
2621, 92.387953, -38.268343, 400.000000
2622, 95.694034, -29.028468, 400.000000
2623, 98.078528, -19.509032, 400.000000
2624, 99.518473, -9.801714, 400.000000
*ELEMENT, TYPE=S4R, ELSET=Shell
1, 1, 2, 66, 65
2, 2, 3, 67, 66
3, 3, 4, 68, 67
4, 4, 5, 69, 68
5, 5, 6, 70, 69
6, 6, 7, 71, 70
7, 7, 8, 72, 71
8, 8, 9, 73, 72
9, 9, 10, 74, 73
10, 10, 11, 75, 74
11, 11, 12, 76, 75
12, 12, 13, 77, 76
13, 13, 14, 78, 77
14, 14, 15, 79, 78
15, 15, 16, 80, 79
16, 16, 17, 81, 80
17, 17, 18, 82, 81
18, 18, 19, 83, 82
19, 19, 20, 84, 83
20, 20, 21, 85, 84
21, 21, 22, 86, 85
22, 22, 23, 87, 86
23, 23, 24, 88, 87
24, 24, 25, 89, 88
25, 25, 26, 90, 89
26, 26, 27, 91, 90
27, 27, 28, 92, 91
28, 28, 29, 93, 92
29, 29, 30, 94, 93
30, 30, 31, 95, 94
31, 31, 32, 96, 95
32, 32, 33, 97, 96
33, 33, 34, 98, 97
34, 34, 35, 99, 98
35, 35, 36, 100, 99
36, 36, 37, 101, 100
37, 37, 38, 102, 101
38, 38, 39, 103, 102
39, 39, 40, 104, 103
40, 40, 41, 105, 104
41, 41, 42, 106, 105
42, 42, 43, 107, 106
43, 43, 44, 108, 107
44, 44, 45, 109, 108
45, 45, 46, 110, 109
46, 46, 47, 111, 110
47, 47, 48, 112, 111
48, 48, 49, 113, 112
49, 49, 50, 114, 113
50, 50, 51, 115, 114
51, 51, 52, 116, 115
52, 52, 53, 117, 116
53, 53, 54, 118, 117
54, 54, 55, 119, 118
55, 55, 56, 120, 119
56, 56, 57, 121, 120
57, 57, 58, 122, 121
58, 58, 59, 123, 122
59, 59, 60, 124, 123
60, 60, 61, 125, 124
61, 61, 62, 126, 125
62, 62, 63, 127, 126
63, 63, 64, 128, 127
64, 64, 1, 65, 128
65, 65, 66, 130, 129
66, 66, 67, 131, 130
67, 67, 68, 132, 131
68, 68, 69, 133, 132
69, 69, 70, 134, 133
70, 70, 71, 135, 134
71, 71, 72, 136, 135
72, 72, 73, 137, 136
73, 73, 74, 138, 137
74, 74, 75, 139, 138
75, 75, 76, 140, 139
76, 76, 77, 141, 140
77, 77, 78, 142, 141
78, 78, 79, 143, 142
79, 79, 80, 144, 143
80, 80, 81, 145, 144
81, 81, 82, 146, 145
82, 82, 83, 147, 146
83, 83, 84, 148, 147
84, 84, 85, 149, 148
85, 85, 86, 150, 149
86, 86, 87, 151, 150
87, 87, 88, 152, 151
88, 88, 89, 153, 152
89, 89, 90, 154, 153
90, 90, 91, 155, 154
91, 91, 92, 156, 155
92, 92, 93, 157, 156
93, 93, 94, 158, 157
94, 94, 95, 159, 158
95, 95, 96, 160, 159
96, 96, 97, 161, 160
97, 97, 98, 162, 161
98, 98, 99, 163, 162
99, 99, 100, 164, 163
100, 100, 101, 165, 164
101, 101, 102, 166, 165
102, 102, 103, 167, 166
103, 103, 104, 168, 167
104, 104, 105, 169, 168
105, 105, 106, 170, 169
106, 106, 107, 171, 170
107, 107, 108, 172, 171
108, 108, 109, 173, 172
109, 109, 110, 174, 173
110, 110, 111, 175, 174
111, 111, 112, 176, 175
112, 112, 113, 177, 176
113, 113, 114, 178, 177
114, 114, 115, 179, 178
115, 115, 116, 180, 179
116, 116, 117, 181, 180
117, 117, 118, 182, 181
118, 118, 119, 183, 182
119, 119, 120, 184, 183
120, 120, 121, 185, 184
121, 121, 122, 186, 185
122, 122, 123, 187, 186
123, 123, 124, 188, 187
124, 124, 125, 189, 188
125, 125, 126, 190, 189
126, 126, 127, 191, 190
127, 127, 128, 192, 191
128, 128, 65, 129, 192
129, 129, 130, 194, 193
130, 130, 131, 195, 194
131, 131, 132, 196, 195
132, 132, 133, 197, 196
133, 133, 134, 198, 197
134, 134, 135, 199, 198
135, 135, 136, 200, 199
136, 136, 137, 201, 200
137, 137, 138, 202, 201
138, 138, 139, 203, 202
139, 139, 140, 204, 203
140, 140, 141, 205, 204
141, 141, 142, 206, 205
142, 142, 143, 207, 206
143, 143, 144, 208, 207
144, 144, 145, 209, 208
145, 145, 146, 210, 209
146, 146, 147, 211, 210
147, 147, 148, 212, 211
148, 148, 149, 213, 212
149, 149, 150, 214, 213
150, 150, 151, 215, 214
151, 151, 152, 216, 215
152, 152, 153, 217, 216
153, 153, 154, 218, 217
154, 154, 155, 219, 218
155, 155, 156, 220, 219
156, 156, 157, 221, 220
157, 157, 158, 222, 221
158, 158, 159, 223, 222
159, 159, 160, 224, 223
160, 160, 161, 225, 224
161, 161, 162, 226, 225
162, 162, 163, 227, 226
163, 163, 164, 228, 227
164, 164, 165, 229, 228
165, 165, 166, 230, 229
166, 166, 167, 231, 230
167, 167, 168, 232, 231
168, 168, 169, 233, 232
169, 169, 170, 234, 233
170, 170, 171, 235, 234
171, 171, 172, 236, 235
172, 172, 173, 237, 236
173, 173, 174, 238, 237
174, 174, 175, 239, 238
175, 175, 176, 240, 239
176, 176, 177, 241, 240
177, 177, 178, 242, 241
178, 178, 179, 243, 242
179, 179, 180, 244, 243
180, 180, 181, 245, 244
181, 181, 182, 246, 245
182, 182, 183, 247, 246
183, 183, 184, 248, 247
184, 184, 185, 249, 248
185, 185, 186, 250, 249
186, 186, 187, 251, 250
187, 187, 188, 252, 251
188, 188, 189, 253, 252
189, 189, 190, 254, 253
190, 190, 191, 255, 254
191, 191, 192, 256, 255
192, 192, 129, 193, 256
193, 193, 194, 258, 257
194, 194, 195, 259, 258
195, 195, 196, 260, 259
196, 196, 197, 261, 260
197, 197, 198, 262, 261
198, 198, 199, 263, 262
199, 199, 200, 264, 263
200, 200, 201, 265, 264
201, 201, 202, 266, 265
202, 202, 203, 267, 266
203, 203, 204, 268, 267
204, 204, 205, 269, 268
205, 205, 206, 270, 269
206, 206, 207, 271, 270
207, 207, 208, 272, 271
208, 208, 209, 273, 272
209, 209, 210, 274, 273
210, 210, 211, 275, 274
211, 211, 212, 276, 275
212, 212, 213, 277, 276
213, 213, 214, 278, 277
214, 214, 215, 279, 278
215, 215, 216, 280, 279
216, 216, 217, 281, 280
217, 217, 218, 282, 281
218, 218, 219, 283, 282
219, 219, 220, 284, 283
220, 220, 221, 285, 284
221, 221, 222, 286, 285
222, 222, 223, 287, 286
223, 223, 224, 288, 287
224, 224, 225, 289, 288
225, 225, 226, 290, 289
226, 226, 227, 291, 290
227, 227, 228, 292, 291
228, 228, 229, 293, 292
229, 229, 230, 294, 293
230, 230, 231, 295, 294
231, 231, 232, 296, 295
232, 232, 233, 297, 296
233, 233, 234, 298, 297
234, 234, 235, 299, 298
235, 235, 236, 300, 299
236, 236, 237, 301, 300
237, 237, 238, 302, 301
238, 238, 239, 303, 302
239, 239, 240, 304, 303
240, 240, 241, 305, 304
241, 241, 242, 306, 305
242, 242, 243, 307, 306
243, 243, 244, 308, 307
244, 244, 245, 309, 308
245, 245, 246, 310, 309
246, 246, 247, 311, 310
247, 247, 248, 312, 311
248, 248, 249, 313, 312
249, 249, 250, 314, 313
250, 250, 251, 315, 314
251, 251, 252, 316, 315
252, 252, 253, 317, 316
253, 253, 254, 318, 317
254, 254, 255, 319, 318
255, 255, 256, 320, 319
256, 256, 193, 257, 320
257, 257, 258, 322, 321
258, 258, 259, 323, 322
259, 259, 260, 324, 323
260, 260, 261, 325, 324
261, 261, 262, 326, 325
262, 262, 263, 327, 326
263, 263, 264, 328, 327
264, 264, 265, 329, 328
265, 265, 266, 330, 329
266, 266, 267, 331, 330
267, 267, 268, 332, 331
268, 268, 269, 333, 332
269, 269, 270, 334, 333
270, 270, 271, 335, 334
271, 271, 272, 336, 335
272, 272, 273, 337, 336
273, 273, 274, 338, 337
274, 274, 275, 339, 338
275, 275, 276, 340, 339
276, 276, 277, 341, 340
277, 277, 278, 342, 341
278, 278, 279, 343, 342
279, 279, 280, 344, 343
280, 280, 281, 345, 344
281, 281, 282, 346, 345
282, 282, 283, 347, 346
283, 283, 284, 348, 347
284, 284, 285, 349, 348
285, 285, 286, 350, 349
286, 286, 287, 351, 350
287, 287, 288, 352, 351
288, 288, 289, 353, 352
289, 289, 290, 354, 353
290, 290, 291, 355, 354
291, 291, 292, 356, 355
292, 292, 293, 357, 356
293, 293, 294, 358, 357
294, 294, 295, 359, 358
295, 295, 296, 360, 359
296, 296, 297, 361, 360
297, 297, 298, 362, 361
298, 298, 299, 363, 362
299, 299, 300, 364, 363
300, 300, 301, 365, 364
301, 301, 302, 366, 365
302, 302, 303, 367, 366
303, 303, 304, 368, 367
304, 304, 305, 369, 368
305, 305, 306, 370, 369
306, 306, 307, 371, 370
307, 307, 308, 372, 371
308, 308, 309, 373, 372
309, 309, 310, 374, 373
310, 310, 311, 375, 374
311, 311, 312, 376, 375
312, 312, 313, 377, 376
313, 313, 314, 378, 377
314, 314, 315, 379, 378
315, 315, 316, 380, 379
316, 316, 317, 381, 380
317, 317, 318, 382, 381
318, 318, 319, 383, 382
319, 319, 320, 384, 383
320, 320, 257, 321, 384
321, 321, 322, 386, 385
322, 322, 323, 387, 386
323, 323, 324, 388, 387
324, 324, 325, 389, 388
325, 325, 326, 390, 389
326, 326, 327, 391, 390
327, 327, 328, 392, 391
328, 328, 329, 393, 392
329, 329, 330, 394, 393
330, 330, 331, 395, 394
331, 331, 332, 396, 395
332, 332, 333, 397, 396
333, 333, 334, 398, 397
334, 334, 335, 399, 398
335, 335, 336, 400, 399
336, 336, 337, 401, 400
337, 337, 338, 402, 401
338, 338, 339, 403, 402
339, 339, 340, 404, 403
340, 340, 341, 405, 404
341, 341, 342, 406, 405
342, 342, 343, 407, 406
343, 343, 344, 408, 407
344, 344, 345, 409, 408
345, 345, 346, 410, 409
346, 346, 347, 411, 410
347, 347, 348, 412, 411
348, 348, 349, 413, 412
349, 349, 350, 414, 413
350, 350, 351, 415, 414
351, 351, 352, 416, 415
352, 352, 353, 417, 416
353, 353, 354, 418, 417
354, 354, 355, 419, 418
355, 355, 356, 420, 419
356, 356, 357, 421, 420
357, 357, 358, 422, 421
358, 358, 359, 423, 422
359, 359, 360, 424, 423
360, 360, 361, 425, 424
361, 361, 362, 426, 425
362, 362, 363, 427, 426
363, 363, 364, 428, 427
364, 364, 365, 429, 428
365, 365, 366, 430, 429
366, 366, 367, 431, 430
367, 367, 368, 432, 431
368, 368, 369, 433, 432
369, 369, 370, 434, 433
370, 370, 371, 435, 434
371, 371, 372, 436, 435
372, 372, 373, 437, 436
373, 373, 374, 438, 437
374, 374, 375, 439, 438
375, 375, 376, 440, 439
376, 376, 377, 441, 440
377, 377, 378, 442, 441
378, 378, 379, 443, 442
379, 379, 380, 444, 443
380, 380, 381, 445, 444
381, 381, 382, 446, 445
382, 382, 383, 447, 446
383, 383, 384, 448, 447
384, 384, 321, 385, 448
385, 385, 386, 450, 449
386, 386, 387, 451, 450
387, 387, 388, 452, 451
388, 388, 389, 453, 452
389, 389, 390, 454, 453
390, 390, 391, 455, 454
391, 391, 392, 456, 455
392, 392, 393, 457, 456
393, 393, 394, 458, 457
394, 394, 395, 459, 458
395, 395, 396, 460, 459
396, 396, 397, 461, 460
397, 397, 398, 462, 461
398, 398, 399, 463, 462
399, 399, 400, 464, 463
400, 400, 401, 465, 464
401, 401, 402, 466, 465
402, 402, 403, 467, 466
403, 403, 404, 468, 467
404, 404, 405, 469, 468
405, 405, 406, 470, 469
406, 406, 407, 471, 470
407, 407, 408, 472, 471
408, 408, 409, 473, 472
409, 409, 410, 474, 473
410, 410, 411, 475, 474
411, 411, 412, 476, 475
412, 412, 413, 477, 476
413, 413, 414, 478, 477
414, 414, 415, 479, 478
415, 415, 416, 480, 479
416, 416, 417, 481, 480
417, 417, 418, 482, 481
418, 418, 419, 483, 482
419, 419, 420, 484, 483
420, 420, 421, 485, 484
421, 421, 422, 486, 485
422, 422, 423, 487, 486
423, 423, 424, 488, 487
424, 424, 425, 489, 488
425, 425, 426, 490, 489
426, 426, 427, 491, 490
427, 427, 428, 492, 491
428, 428, 429, 493, 492
429, 429, 430, 494, 493
430, 430, 431, 495, 494
431, 431, 432, 496, 495
432, 432, 433, 497, 496
433, 433, 434, 498, 497
434, 434, 435, 499, 498
435, 435, 436, 500, 499
436, 436, 437, 501, 500
437, 437, 438, 502, 501
438, 438, 439, 503, 502
439, 439, 440, 504, 503
440, 440, 441, 505, 504
441, 441, 442, 506, 505
442, 442, 443, 507, 506
443, 443, 444, 508, 507
444, 444, 445, 509, 508
445, 445, 446, 510, 509
446, 446, 447, 511, 510
447, 447, 448, 512, 511
448, 448, 385, 449, 512
449, 449, 450, 514, 513
450, 450, 451, 515, 514
451, 451, 452, 516, 515
452, 452, 453, 517, 516
453, 453, 454, 518, 517
454, 454, 455, 519, 518
455, 455, 456, 520, 519
456, 456, 457, 521, 520
457, 457, 458, 522, 521
458, 458, 459, 523, 522
459, 459, 460, 524, 523
460, 460, 461, 525, 524
461, 461, 462, 526, 525
462, 462, 463, 527, 526
463, 463, 464, 528, 527
464, 464, 465, 529, 528
465, 465, 466, 530, 529
466, 466, 467, 531, 530
467, 467, 468, 532, 531
468, 468, 469, 533, 532
469, 469, 470, 534, 533
470, 470, 471, 535, 534
471, 471, 472, 536, 535
472, 472, 473, 537, 536
473, 473, 474, 538, 537
474, 474, 475, 539, 538
475, 475, 476, 540, 539
476, 476, 477, 541, 540
477, 477, 478, 542, 541
478, 478, 479, 543, 542
479, 479, 480, 544, 543
480, 480, 481, 545, 544
481, 481, 482, 546, 545
482, 482, 483, 547, 546
483, 483, 484, 548, 547
484, 484, 485, 549, 548
485, 485, 486, 550, 549
486, 486, 487, 551, 550
487, 487, 488, 552, 551
488, 488, 489, 553, 552
489, 489, 490, 554, 553
490, 490, 491, 555, 554
491, 491, 492, 556, 555
492, 492, 493, 557, 556
493, 493, 494, 558, 557
494, 494, 495, 559, 558
495, 495, 496, 560, 559
496, 496, 497, 561, 560
497, 497, 498, 562, 561
498, 498, 499, 563, 562
499, 499, 500, 564, 563
500, 500, 501, 565, 564
501, 501, 502, 566, 565
502, 502, 503, 567, 566
503, 503, 504, 568, 567
504, 504, 505, 569, 568
505, 505, 506, 570, 569
506, 506, 507, 571, 570
507, 507, 508, 572, 571
508, 508, 509, 573, 572
509, 509, 510, 574, 573
510, 510, 511, 575, 574
511, 511, 512, 576, 575
512, 512, 449, 513, 576
513, 513, 514, 578, 577
514, 514, 515, 579, 578
515, 515, 516, 580, 579
516, 516, 517, 581, 580
517, 517, 518, 582, 581
518, 518, 519, 583, 582
519, 519, 520, 584, 583
520, 520, 521, 585, 584
521, 521, 522, 586, 585
522, 522, 523, 587, 586
523, 523, 524, 588, 587
524, 524, 525, 589, 588
525, 525, 526, 590, 589
526, 526, 527, 591, 590
527, 527, 528, 592, 591
528, 528, 529, 593, 592
529, 529, 530, 594, 593
530, 530, 531, 595, 594
531, 531, 532, 596, 595
532, 532, 533, 597, 596
533, 533, 534, 598, 597
534, 534, 535, 599, 598
535, 535, 536, 600, 599
536, 536, 537, 601, 600
537, 537, 538, 602, 601
538, 538, 539, 603, 602
539, 539, 540, 604, 603
540, 540, 541, 605, 604
541, 541, 542, 606, 605
542, 542, 543, 607, 606
543, 543, 544, 608, 607
544, 544, 545, 609, 608
545, 545, 546, 610, 609
546, 546, 547, 611, 610
547, 547, 548, 612, 611
548, 548, 549, 613, 612
549, 549, 550, 614, 613
550, 550, 551, 615, 614
551, 551, 552, 616, 615
552, 552, 553, 617, 616
553, 553, 554, 618, 617
554, 554, 555, 619, 618
555, 555, 556, 620, 619
556, 556, 557, 621, 620
557, 557, 558, 622, 621
558, 558, 559, 623, 622
559, 559, 560, 624, 623
560, 560, 561, 625, 624
561, 561, 562, 626, 625
562, 562, 563, 627, 626
563, 563, 564, 628, 627
564, 564, 565, 629, 628
565, 565, 566, 630, 629
566, 566, 567, 631, 630
567, 567, 568, 632, 631
568, 568, 569, 633, 632
569, 569, 570, 634, 633
570, 570, 571, 635, 634
571, 571, 572, 636, 635
572, 572, 573, 637, 636
573, 573, 574, 638, 637
574, 574, 575, 639, 638
575, 575, 576, 640, 639
576, 576, 513, 577, 640
577, 577, 578, 642, 641
578, 578, 579, 643, 642
579, 579, 580, 644, 643
580, 580, 581, 645, 644
581, 581, 582, 646, 645
582, 582, 583, 647, 646
583, 583, 584, 648, 647
584, 584, 585, 649, 648
585, 585, 586, 650, 649
586, 586, 587, 651, 650
587, 587, 588, 652, 651
588, 588, 589, 653, 652
589, 589, 590, 654, 653
590, 590, 591, 655, 654
591, 591, 592, 656, 655
592, 592, 593, 657, 656
593, 593, 594, 658, 657
594, 594, 595, 659, 658
595, 595, 596, 660, 659
596, 596, 597, 661, 660
597, 597, 598, 662, 661
598, 598, 599, 663, 662
599, 599, 600, 664, 663
600, 600, 601, 665, 664
601, 601, 602, 666, 665
602, 602, 603, 667, 666
603, 603, 604, 668, 667
604, 604, 605, 669, 668
605, 605, 606, 670, 669
606, 606, 607, 671, 670
607, 607, 608, 672, 671
608, 608, 609, 673, 672
609, 609, 610, 674, 673
610, 610, 611, 675, 674
611, 611, 612, 676, 675
612, 612, 613, 677, 676
613, 613, 614, 678, 677
614, 614, 615, 679, 678
615, 615, 616, 680, 679
616, 616, 617, 681, 680
617, 617, 618, 682, 681
618, 618, 619, 683, 682
619, 619, 620, 684, 683
620, 620, 621, 685, 684
621, 621, 622, 686, 685
622, 622, 623, 687, 686
623, 623, 624, 688, 687
624, 624, 625, 689, 688
625, 625, 626, 690, 689
626, 626, 627, 691, 690
627, 627, 628, 692, 691
628, 628, 629, 693, 692
629, 629, 630, 694, 693
630, 630, 631, 695, 694
631, 631, 632, 696, 695
632, 632, 633, 697, 696
633, 633, 634, 698, 697
634, 634, 635, 699, 698
635, 635, 636, 700, 699
636, 636, 637, 701, 700
637, 637, 638, 702, 701
638, 638, 639, 703, 702
639, 639, 640, 704, 703
640, 640, 577, 641, 704
641, 641, 642, 706, 705
642, 642, 643, 707, 706
643, 643, 644, 708, 707
644, 644, 645, 709, 708
645, 645, 646, 710, 709
646, 646, 647, 711, 710
647, 647, 648, 712, 711
648, 648, 649, 713, 712
649, 649, 650, 714, 713
650, 650, 651, 715, 714
651, 651, 652, 716, 715
652, 652, 653, 717, 716
653, 653, 654, 718, 717
654, 654, 655, 719, 718
655, 655, 656, 720, 719
656, 656, 657, 721, 720
657, 657, 658, 722, 721
658, 658, 659, 723, 722
659, 659, 660, 724, 723
660, 660, 661, 725, 724
661, 661, 662, 726, 725
662, 662, 663, 727, 726
663, 663, 664, 728, 727
664, 664, 665, 729, 728
665, 665, 666, 730, 729
666, 666, 667, 731, 730
667, 667, 668, 732, 731
668, 668, 669, 733, 732
669, 669, 670, 734, 733
670, 670, 671, 735, 734
671, 671, 672, 736, 735
672, 672, 673, 737, 736
673, 673, 674, 738, 737
674, 674, 675, 739, 738
675, 675, 676, 740, 739
676, 676, 677, 741, 740
677, 677, 678, 742, 741
678, 678, 679, 743, 742
679, 679, 680, 744, 743
680, 680, 681, 745, 744
681, 681, 682, 746, 745
682, 682, 683, 747, 746
683, 683, 684, 748, 747
684, 684, 685, 749, 748
685, 685, 686, 750, 749
686, 686, 687, 751, 750
687, 687, 688, 752, 751
688, 688, 689, 753, 752
689, 689, 690, 754, 753
690, 690, 691, 755, 754
691, 691, 692, 756, 755
692, 692, 693, 757, 756
693, 693, 694, 758, 757
694, 694, 695, 759, 758
695, 695, 696, 760, 759
696, 696, 697, 761, 760
697, 697, 698, 762, 761
698, 698, 699, 763, 762
699, 699, 700, 764, 763
700, 700, 701, 765, 764
701, 701, 702, 766, 765
702, 702, 703, 767, 766
703, 703, 704, 768, 767
704, 704, 641, 705, 768
705, 705, 706, 770, 769
706, 706, 707, 771, 770
707, 707, 708, 772, 771
708, 708, 709, 773, 772
709, 709, 710, 774, 773
710, 710, 711, 775, 774
711, 711, 712, 776, 775
712, 712, 713, 777, 776
713, 713, 714, 778, 777
714, 714, 715, 779, 778
715, 715, 716, 780, 779
716, 716, 717, 781, 780
717, 717, 718, 782, 781
718, 718, 719, 783, 782
719, 719, 720, 784, 783
720, 720, 721, 785, 784
721, 721, 722, 786, 785
722, 722, 723, 787, 786
723, 723, 724, 788, 787
724, 724, 725, 789, 788
725, 725, 726, 790, 789
726, 726, 727, 791, 790
727, 727, 728, 792, 791
728, 728, 729, 793, 792
729, 729, 730, 794, 793
730, 730, 731, 795, 794
731, 731, 732, 796, 795
732, 732, 733, 797, 796
733, 733, 734, 798, 797
734, 734, 735, 799, 798
735, 735, 736, 800, 799
736, 736, 737, 801, 800
737, 737, 738, 802, 801
738, 738, 739, 803, 802
739, 739, 740, 804, 803
740, 740, 741, 805, 804
741, 741, 742, 806, 805
742, 742, 743, 807, 806
743, 743, 744, 808, 807
744, 744, 745, 809, 808
745, 745, 746, 810, 809
746, 746, 747, 811, 810
747, 747, 748, 812, 811
748, 748, 749, 813, 812
749, 749, 750, 814, 813
750, 750, 751, 815, 814
751, 751, 752, 816, 815
752, 752, 753, 817, 816
753, 753, 754, 818, 817
754, 754, 755, 819, 818
755, 755, 756, 820, 819
756, 756, 757, 821, 820
757, 757, 758, 822, 821
758, 758, 759, 823, 822
759, 759, 760, 824, 823
760, 760, 761, 825, 824
761, 761, 762, 826, 825
762, 762, 763, 827, 826
763, 763, 764, 828, 827
764, 764, 765, 829, 828
765, 765, 766, 830, 829
766, 766, 767, 831, 830
767, 767, 768, 832, 831
768, 768, 705, 769, 832
769, 769, 770, 834, 833
770, 770, 771, 835, 834
771, 771, 772, 836, 835
772, 772, 773, 837, 836
773, 773, 774, 838, 837
774, 774, 775, 839, 838
775, 775, 776, 840, 839
776, 776, 777, 841, 840
777, 777, 778, 842, 841
778, 778, 779, 843, 842
779, 779, 780, 844, 843
780, 780, 781, 845, 844
781, 781, 782, 846, 845
782, 782, 783, 847, 846
783, 783, 784, 848, 847
784, 784, 785, 849, 848
785, 785, 786, 850, 849
786, 786, 787, 851, 850
787, 787, 788, 852, 851
788, 788, 789, 853, 852
789, 789, 790, 854, 853
790, 790, 791, 855, 854
791, 791, 792, 856, 855
792, 792, 793, 857, 856
793, 793, 794, 858, 857
794, 794, 795, 859, 858
795, 795, 796, 860, 859
796, 796, 797, 861, 860
797, 797, 798, 862, 861
798, 798, 799, 863, 862
799, 799, 800, 864, 863
800, 800, 801, 865, 864
801, 801, 802, 866, 865
802, 802, 803, 867, 866
803, 803, 804, 868, 867
804, 804, 805, 869, 868
805, 805, 806, 870, 869
806, 806, 807, 871, 870
807, 807, 808, 872, 871
808, 808, 809, 873, 872
809, 809, 810, 874, 873
810, 810, 811, 875, 874
811, 811, 812, 876, 875
812, 812, 813, 877, 876
813, 813, 814, 878, 877
814, 814, 815, 879, 878
815, 815, 816, 880, 879
816, 816, 817, 881, 880
817, 817, 818, 882, 881
818, 818, 819, 883, 882
819, 819, 820, 884, 883
820, 820, 821, 885, 884
821, 821, 822, 886, 885
822, 822, 823, 887, 886
823, 823, 824, 888, 887
824, 824, 825, 889, 888
825, 825, 826, 890, 889
826, 826, 827, 891, 890
827, 827, 828, 892, 891
828, 828, 829, 893, 892
829, 829, 830, 894, 893
830, 830, 831, 895, 894
831, 831, 832, 896, 895
832, 832, 769, 833, 896
833, 833, 834, 898, 897
834, 834, 835, 899, 898
835, 835, 836, 900, 899
836, 836, 837, 901, 900
837, 837, 838, 902, 901
838, 838, 839, 903, 902
839, 839, 840, 904, 903
840, 840, 841, 905, 904
841, 841, 842, 906, 905
842, 842, 843, 907, 906
843, 843, 844, 908, 907
844, 844, 845, 909, 908
845, 845, 846, 910, 909
846, 846, 847, 911, 910
847, 847, 848, 912, 911
848, 848, 849, 913, 912
849, 849, 850, 914, 913
850, 850, 851, 915, 914
851, 851, 852, 916, 915
852, 852, 853, 917, 916
853, 853, 854, 918, 917
854, 854, 855, 919, 918
855, 855, 856, 920, 919
856, 856, 857, 921, 920
857, 857, 858, 922, 921
858, 858, 859, 923, 922
859, 859, 860, 924, 923
860, 860, 861, 925, 924
861, 861, 862, 926, 925
862, 862, 863, 927, 926
863, 863, 864, 928, 927
864, 864, 865, 929, 928
865, 865, 866, 930, 929
866, 866, 867, 931, 930
867, 867, 868, 932, 931
868, 868, 869, 933, 932
869, 869, 870, 934, 933
870, 870, 871, 935, 934
871, 871, 872, 936, 935
872, 872, 873, 937, 936
873, 873, 874, 938, 937
874, 874, 875, 939, 938
875, 875, 876, 940, 939
876, 876, 877, 941, 940
877, 877, 878, 942, 941
878, 878, 879, 943, 942
879, 879, 880, 944, 943
880, 880, 881, 945, 944
881, 881, 882, 946, 945
882, 882, 883, 947, 946
883, 883, 884, 948, 947
884, 884, 885, 949, 948
885, 885, 886, 950, 949
886, 886, 887, 951, 950
887, 887, 888, 952, 951
888, 888, 889, 953, 952
889, 889, 890, 954, 953
890, 890, 891, 955, 954
891, 891, 892, 956, 955
892, 892, 893, 957, 956
893, 893, 894, 958, 957
894, 894, 895, 959, 958
895, 895, 896, 960, 959
896, 896, 833, 897, 960
897, 897, 898, 962, 961
898, 898, 899, 963, 962
899, 899, 900, 964, 963
900, 900, 901, 965, 964
901, 901, 902, 966, 965
902, 902, 903, 967, 966
903, 903, 904, 968, 967
904, 904, 905, 969, 968
905, 905, 906, 970, 969
906, 906, 907, 971, 970
907, 907, 908, 972, 971
908, 908, 909, 973, 972
909, 909, 910, 974, 973
910, 910, 911, 975, 974
911, 911, 912, 976, 975
912, 912, 913, 977, 976
913, 913, 914, 978, 977
914, 914, 915, 979, 978
915, 915, 916, 980, 979
916, 916, 917, 981, 980
917, 917, 918, 982, 981
918, 918, 919, 983, 982
919, 919, 920, 984, 983
920, 920, 921, 985, 984
921, 921, 922, 986, 985
922, 922, 923, 987, 986
923, 923, 924, 988, 987
924, 924, 925, 989, 988
925, 925, 926, 990, 989
926, 926, 927, 991, 990
927, 927, 928, 992, 991
928, 928, 929, 993, 992
929, 929, 930, 994, 993
930, 930, 931, 995, 994
931, 931, 932, 996, 995
932, 932, 933, 997, 996
933, 933, 934, 998, 997
934, 934, 935, 999, 998
935, 935, 936, 1000, 999
936, 936, 937, 1001, 1000
937, 937, 938, 1002, 1001
938, 938, 939, 1003, 1002
939, 939, 940, 1004, 1003
940, 940, 941, 1005, 1004
941, 941, 942, 1006, 1005
942, 942, 943, 1007, 1006
943, 943, 944, 1008, 1007
944, 944, 945, 1009, 1008
945, 945, 946, 1010, 1009
946, 946, 947, 1011, 1010
947, 947, 948, 1012, 1011
948, 948, 949, 1013, 1012
949, 949, 950, 1014, 1013
950, 950, 951, 1015, 1014
951, 951, 952, 1016, 1015
952, 952, 953, 1017, 1016
953, 953, 954, 1018, 1017
954, 954, 955, 1019, 1018
955, 955, 956, 1020, 1019
956, 956, 957, 1021, 1020
957, 957, 958, 1022, 1021
958, 958, 959, 1023, 1022
959, 959, 960, 1024, 1023
960, 960, 897, 961, 1024
961, 961, 962, 1026, 1025
962, 962, 963, 1027, 1026
963, 963, 964, 1028, 1027
964, 964, 965, 1029, 1028
965, 965, 966, 1030, 1029
966, 966, 967, 1031, 1030
967, 967, 968, 1032, 1031
968, 968, 969, 1033, 1032
969, 969, 970, 1034, 1033
970, 970, 971, 1035, 1034
971, 971, 972, 1036, 1035
972, 972, 973, 1037, 1036
973, 973, 974, 1038, 1037
974, 974, 975, 1039, 1038
975, 975, 976, 1040, 1039
976, 976, 977, 1041, 1040
977, 977, 978, 1042, 1041
978, 978, 979, 1043, 1042
979, 979, 980, 1044, 1043
980, 980, 981, 1045, 1044
981, 981, 982, 1046, 1045
982, 982, 983, 1047, 1046
983, 983, 984, 1048, 1047
984, 984, 985, 1049, 1048
985, 985, 986, 1050, 1049
986, 986, 987, 1051, 1050
987, 987, 988, 1052, 1051
988, 988, 989, 1053, 1052
989, 989, 990, 1054, 1053
990, 990, 991, 1055, 1054
991, 991, 992, 1056, 1055
992, 992, 993, 1057, 1056
993, 993, 994, 1058, 1057
994, 994, 995, 1059, 1058
995, 995, 996, 1060, 1059
996, 996, 997, 1061, 1060
997, 997, 998, 1062, 1061
998, 998, 999, 1063, 1062
999, 999, 1000, 1064, 1063
1000, 1000, 1001, 1065, 1064
1001, 1001, 1002, 1066, 1065
1002, 1002, 1003, 1067, 1066
1003, 1003, 1004, 1068, 1067
1004, 1004, 1005, 1069, 1068
1005, 1005, 1006, 1070, 1069
1006, 1006, 1007, 1071, 1070
1007, 1007, 1008, 1072, 1071
1008, 1008, 1009, 1073, 1072
1009, 1009, 1010, 1074, 1073
1010, 1010, 1011, 1075, 1074
1011, 1011, 1012, 1076, 1075
1012, 1012, 1013, 1077, 1076
1013, 1013, 1014, 1078, 1077
1014, 1014, 1015, 1079, 1078
1015, 1015, 1016, 1080, 1079
1016, 1016, 1017, 1081, 1080
1017, 1017, 1018, 1082, 1081
1018, 1018, 1019, 1083, 1082
1019, 1019, 1020, 1084, 1083
1020, 1020, 1021, 1085, 1084
1021, 1021, 1022, 1086, 1085
1022, 1022, 1023, 1087, 1086
1023, 1023, 1024, 1088, 1087
1024, 1024, 961, 1025, 1088
1025, 1025, 1026, 1090, 1089
1026, 1026, 1027, 1091, 1090
1027, 1027, 1028, 1092, 1091
1028, 1028, 1029, 1093, 1092
1029, 1029, 1030, 1094, 1093
1030, 1030, 1031, 1095, 1094
1031, 1031, 1032, 1096, 1095
1032, 1032, 1033, 1097, 1096
1033, 1033, 1034, 1098, 1097
1034, 1034, 1035, 1099, 1098
1035, 1035, 1036, 1100, 1099
1036, 1036, 1037, 1101, 1100
1037, 1037, 1038, 1102, 1101
1038, 1038, 1039, 1103, 1102
1039, 1039, 1040, 1104, 1103
1040, 1040, 1041, 1105, 1104
1041, 1041, 1042, 1106, 1105
1042, 1042, 1043, 1107, 1106
1043, 1043, 1044, 1108, 1107
1044, 1044, 1045, 1109, 1108
1045, 1045, 1046, 1110, 1109
1046, 1046, 1047, 1111, 1110
1047, 1047, 1048, 1112, 1111
1048, 1048, 1049, 1113, 1112
1049, 1049, 1050, 1114, 1113
1050, 1050, 1051, 1115, 1114
1051, 1051, 1052, 1116, 1115
1052, 1052, 1053, 1117, 1116
1053, 1053, 1054, 1118, 1117
1054, 1054, 1055, 1119, 1118
1055, 1055, 1056, 1120, 1119
1056, 1056, 1057, 1121, 1120
1057, 1057, 1058, 1122, 1121
1058, 1058, 1059, 1123, 1122
1059, 1059, 1060, 1124, 1123
1060, 1060, 1061, 1125, 1124
1061, 1061, 1062, 1126, 1125
1062, 1062, 1063, 1127, 1126
1063, 1063, 1064, 1128, 1127
1064, 1064, 1065, 1129, 1128
1065, 1065, 1066, 1130, 1129
1066, 1066, 1067, 1131, 1130
1067, 1067, 1068, 1132, 1131
1068, 1068, 1069, 1133, 1132
1069, 1069, 1070, 1134, 1133
1070, 1070, 1071, 1135, 1134
1071, 1071, 1072, 1136, 1135
1072, 1072, 1073, 1137, 1136
1073, 1073, 1074, 1138, 1137
1074, 1074, 1075, 1139, 1138
1075, 1075, 1076, 1140, 1139
1076, 1076, 1077, 1141, 1140
1077, 1077, 1078, 1142, 1141
1078, 1078, 1079, 1143, 1142
1079, 1079, 1080, 1144, 1143
1080, 1080, 1081, 1145, 1144
1081, 1081, 1082, 1146, 1145
1082, 1082, 1083, 1147, 1146
1083, 1083, 1084, 1148, 1147
1084, 1084, 1085, 1149, 1148
1085, 1085, 1086, 1150, 1149
1086, 1086, 1087, 1151, 1150
1087, 1087, 1088, 1152, 1151
1088, 1088, 1025, 1089, 1152
1089, 1089, 1090, 1154, 1153
1090, 1090, 1091, 1155, 1154
1091, 1091, 1092, 1156, 1155
1092, 1092, 1093, 1157, 1156
1093, 1093, 1094, 1158, 1157
1094, 1094, 1095, 1159, 1158
1095, 1095, 1096, 1160, 1159
1096, 1096, 1097, 1161, 1160
1097, 1097, 1098, 1162, 1161
1098, 1098, 1099, 1163, 1162
1099, 1099, 1100, 1164, 1163
1100, 1100, 1101, 1165, 1164
1101, 1101, 1102, 1166, 1165
1102, 1102, 1103, 1167, 1166
1103, 1103, 1104, 1168, 1167
1104, 1104, 1105, 1169, 1168
1105, 1105, 1106, 1170, 1169
1106, 1106, 1107, 1171, 1170
1107, 1107, 1108, 1172, 1171
1108, 1108, 1109, 1173, 1172
1109, 1109, 1110, 1174, 1173
1110, 1110, 1111, 1175, 1174
1111, 1111, 1112, 1176, 1175
1112, 1112, 1113, 1177, 1176
1113, 1113, 1114, 1178, 1177
1114, 1114, 1115, 1179, 1178
1115, 1115, 1116, 1180, 1179
1116, 1116, 1117, 1181, 1180
1117, 1117, 1118, 1182, 1181
1118, 1118, 1119, 1183, 1182
1119, 1119, 1120, 1184, 1183
1120, 1120, 1121, 1185, 1184
1121, 1121, 1122, 1186, 1185
1122, 1122, 1123, 1187, 1186
1123, 1123, 1124, 1188, 1187
1124, 1124, 1125, 1189, 1188
1125, 1125, 1126, 1190, 1189
1126, 1126, 1127, 1191, 1190
1127, 1127, 1128, 1192, 1191
1128, 1128, 1129, 1193, 1192
1129, 1129, 1130, 1194, 1193
1130, 1130, 1131, 1195, 1194
1131, 1131, 1132, 1196, 1195
1132, 1132, 1133, 1197, 1196
1133, 1133, 1134, 1198, 1197
1134, 1134, 1135, 1199, 1198
1135, 1135, 1136, 1200, 1199
1136, 1136, 1137, 1201, 1200
1137, 1137, 1138, 1202, 1201
1138, 1138, 1139, 1203, 1202
1139, 1139, 1140, 1204, 1203
1140, 1140, 1141, 1205, 1204
1141, 1141, 1142, 1206, 1205
1142, 1142, 1143, 1207, 1206
1143, 1143, 1144, 1208, 1207
1144, 1144, 1145, 1209, 1208
1145, 1145, 1146, 1210, 1209
1146, 1146, 1147, 1211, 1210
1147, 1147, 1148, 1212, 1211
1148, 1148, 1149, 1213, 1212
1149, 1149, 1150, 1214, 1213
1150, 1150, 1151, 1215, 1214
1151, 1151, 1152, 1216, 1215
1152, 1152, 1089, 1153, 1216
1153, 1153, 1154, 1218, 1217
1154, 1154, 1155, 1219, 1218
1155, 1155, 1156, 1220, 1219
1156, 1156, 1157, 1221, 1220
1157, 1157, 1158, 1222, 1221
1158, 1158, 1159, 1223, 1222
1159, 1159, 1160, 1224, 1223
1160, 1160, 1161, 1225, 1224
1161, 1161, 1162, 1226, 1225
1162, 1162, 1163, 1227, 1226
1163, 1163, 1164, 1228, 1227
1164, 1164, 1165, 1229, 1228
1165, 1165, 1166, 1230, 1229
1166, 1166, 1167, 1231, 1230
1167, 1167, 1168, 1232, 1231
1168, 1168, 1169, 1233, 1232
1169, 1169, 1170, 1234, 1233
1170, 1170, 1171, 1235, 1234
1171, 1171, 1172, 1236, 1235
1172, 1172, 1173, 1237, 1236
1173, 1173, 1174, 1238, 1237
1174, 1174, 1175, 1239, 1238
1175, 1175, 1176, 1240, 1239
1176, 1176, 1177, 1241, 1240
1177, 1177, 1178, 1242, 1241
1178, 1178, 1179, 1243, 1242
1179, 1179, 1180, 1244, 1243
1180, 1180, 1181, 1245, 1244
1181, 1181, 1182, 1246, 1245
1182, 1182, 1183, 1247, 1246
1183, 1183, 1184, 1248, 1247
1184, 1184, 1185, 1249, 1248
1185, 1185, 1186, 1250, 1249
1186, 1186, 1187, 1251, 1250
1187, 1187, 1188, 1252, 1251
1188, 1188, 1189, 1253, 1252
1189, 1189, 1190, 1254, 1253
1190, 1190, 1191, 1255, 1254
1191, 1191, 1192, 1256, 1255
1192, 1192, 1193, 1257, 1256
1193, 1193, 1194, 1258, 1257
1194, 1194, 1195, 1259, 1258
1195, 1195, 1196, 1260, 1259
1196, 1196, 1197, 1261, 1260
1197, 1197, 1198, 1262, 1261
1198, 1198, 1199, 1263, 1262
1199, 1199, 1200, 1264, 1263
1200, 1200, 1201, 1265, 1264
1201, 1201, 1202, 1266, 1265
1202, 1202, 1203, 1267, 1266
1203, 1203, 1204, 1268, 1267
1204, 1204, 1205, 1269, 1268
1205, 1205, 1206, 1270, 1269
1206, 1206, 1207, 1271, 1270
1207, 1207, 1208, 1272, 1271
1208, 1208, 1209, 1273, 1272
1209, 1209, 1210, 1274, 1273
1210, 1210, 1211, 1275, 1274
1211, 1211, 1212, 1276, 1275
1212, 1212, 1213, 1277, 1276
1213, 1213, 1214, 1278, 1277
1214, 1214, 1215, 1279, 1278
1215, 1215, 1216, 1280, 1279
1216, 1216, 1153, 1217, 1280
1217, 1217, 1218, 1282, 1281
1218, 1218, 1219, 1283, 1282
1219, 1219, 1220, 1284, 1283
1220, 1220, 1221, 1285, 1284
1221, 1221, 1222, 1286, 1285
1222, 1222, 1223, 1287, 1286
1223, 1223, 1224, 1288, 1287
1224, 1224, 1225, 1289, 1288
1225, 1225, 1226, 1290, 1289
1226, 1226, 1227, 1291, 1290
1227, 1227, 1228, 1292, 1291
1228, 1228, 1229, 1293, 1292
1229, 1229, 1230, 1294, 1293
1230, 1230, 1231, 1295, 1294
1231, 1231, 1232, 1296, 1295
1232, 1232, 1233, 1297, 1296
1233, 1233, 1234, 1298, 1297
1234, 1234, 1235, 1299, 1298
1235, 1235, 1236, 1300, 1299
1236, 1236, 1237, 1301, 1300
1237, 1237, 1238, 1302, 1301
1238, 1238, 1239, 1303, 1302
1239, 1239, 1240, 1304, 1303
1240, 1240, 1241, 1305, 1304
1241, 1241, 1242, 1306, 1305
1242, 1242, 1243, 1307, 1306
1243, 1243, 1244, 1308, 1307
1244, 1244, 1245, 1309, 1308
1245, 1245, 1246, 1310, 1309
1246, 1246, 1247, 1311, 1310
1247, 1247, 1248, 1312, 1311
1248, 1248, 1249, 1313, 1312
1249, 1249, 1250, 1314, 1313
1250, 1250, 1251, 1315, 1314
1251, 1251, 1252, 1316, 1315
1252, 1252, 1253, 1317, 1316
1253, 1253, 1254, 1318, 1317
1254, 1254, 1255, 1319, 1318
1255, 1255, 1256, 1320, 1319
1256, 1256, 1257, 1321, 1320
1257, 1257, 1258, 1322, 1321
1258, 1258, 1259, 1323, 1322
1259, 1259, 1260, 1324, 1323
1260, 1260, 1261, 1325, 1324
1261, 1261, 1262, 1326, 1325
1262, 1262, 1263, 1327, 1326
1263, 1263, 1264, 1328, 1327
1264, 1264, 1265, 1329, 1328
1265, 1265, 1266, 1330, 1329
1266, 1266, 1267, 1331, 1330
1267, 1267, 1268, 1332, 1331
1268, 1268, 1269, 1333, 1332
1269, 1269, 1270, 1334, 1333
1270, 1270, 1271, 1335, 1334
1271, 1271, 1272, 1336, 1335
1272, 1272, 1273, 1337, 1336
1273, 1273, 1274, 1338, 1337
1274, 1274, 1275, 1339, 1338
1275, 1275, 1276, 1340, 1339
1276, 1276, 1277, 1341, 1340
1277, 1277, 1278, 1342, 1341
1278, 1278, 1279, 1343, 1342
1279, 1279, 1280, 1344, 1343
1280, 1280, 1217, 1281, 1344
1281, 1281, 1282, 1346, 1345
1282, 1282, 1283, 1347, 1346
1283, 1283, 1284, 1348, 1347
1284, 1284, 1285, 1349, 1348
1285, 1285, 1286, 1350, 1349
1286, 1286, 1287, 1351, 1350
1287, 1287, 1288, 1352, 1351
1288, 1288, 1289, 1353, 1352
1289, 1289, 1290, 1354, 1353
1290, 1290, 1291, 1355, 1354
1291, 1291, 1292, 1356, 1355
1292, 1292, 1293, 1357, 1356
1293, 1293, 1294, 1358, 1357
1294, 1294, 1295, 1359, 1358
1295, 1295, 1296, 1360, 1359
1296, 1296, 1297, 1361, 1360
1297, 1297, 1298, 1362, 1361
1298, 1298, 1299, 1363, 1362
1299, 1299, 1300, 1364, 1363
1300, 1300, 1301, 1365, 1364
1301, 1301, 1302, 1366, 1365
1302, 1302, 1303, 1367, 1366
1303, 1303, 1304, 1368, 1367
1304, 1304, 1305, 1369, 1368
1305, 1305, 1306, 1370, 1369
1306, 1306, 1307, 1371, 1370
1307, 1307, 1308, 1372, 1371
1308, 1308, 1309, 1373, 1372
1309, 1309, 1310, 1374, 1373
1310, 1310, 1311, 1375, 1374
1311, 1311, 1312, 1376, 1375
1312, 1312, 1313, 1377, 1376
1313, 1313, 1314, 1378, 1377
1314, 1314, 1315, 1379, 1378
1315, 1315, 1316, 1380, 1379
1316, 1316, 1317, 1381, 1380
1317, 1317, 1318, 1382, 1381
1318, 1318, 1319, 1383, 1382
1319, 1319, 1320, 1384, 1383
1320, 1320, 1321, 1385, 1384
1321, 1321, 1322, 1386, 1385
1322, 1322, 1323, 1387, 1386
1323, 1323, 1324, 1388, 1387
1324, 1324, 1325, 1389, 1388
1325, 1325, 1326, 1390, 1389
1326, 1326, 1327, 1391, 1390
1327, 1327, 1328, 1392, 1391
1328, 1328, 1329, 1393, 1392
1329, 1329, 1330, 1394, 1393
1330, 1330, 1331, 1395, 1394
1331, 1331, 1332, 1396, 1395
1332, 1332, 1333, 1397, 1396
1333, 1333, 1334, 1398, 1397
1334, 1334, 1335, 1399, 1398
1335, 1335, 1336, 1400, 1399
1336, 1336, 1337, 1401, 1400
1337, 1337, 1338, 1402, 1401
1338, 1338, 1339, 1403, 1402
1339, 1339, 1340, 1404, 1403
1340, 1340, 1341, 1405, 1404
1341, 1341, 1342, 1406, 1405
1342, 1342, 1343, 1407, 1406
1343, 1343, 1344, 1408, 1407
1344, 1344, 1281, 1345, 1408
1345, 1345, 1346, 1410, 1409
1346, 1346, 1347, 1411, 1410
1347, 1347, 1348, 1412, 1411
1348, 1348, 1349, 1413, 1412
1349, 1349, 1350, 1414, 1413
1350, 1350, 1351, 1415, 1414
1351, 1351, 1352, 1416, 1415
1352, 1352, 1353, 1417, 1416
1353, 1353, 1354, 1418, 1417
1354, 1354, 1355, 1419, 1418
1355, 1355, 1356, 1420, 1419
1356, 1356, 1357, 1421, 1420
1357, 1357, 1358, 1422, 1421
1358, 1358, 1359, 1423, 1422
1359, 1359, 1360, 1424, 1423
1360, 1360, 1361, 1425, 1424
1361, 1361, 1362, 1426, 1425
1362, 1362, 1363, 1427, 1426
1363, 1363, 1364, 1428, 1427
1364, 1364, 1365, 1429, 1428
1365, 1365, 1366, 1430, 1429
1366, 1366, 1367, 1431, 1430
1367, 1367, 1368, 1432, 1431
1368, 1368, 1369, 1433, 1432
1369, 1369, 1370, 1434, 1433
1370, 1370, 1371, 1435, 1434
1371, 1371, 1372, 1436, 1435
1372, 1372, 1373, 1437, 1436
1373, 1373, 1374, 1438, 1437
1374, 1374, 1375, 1439, 1438
1375, 1375, 1376, 1440, 1439
1376, 1376, 1377, 1441, 1440
1377, 1377, 1378, 1442, 1441
1378, 1378, 1379, 1443, 1442
1379, 1379, 1380, 1444, 1443
1380, 1380, 1381, 1445, 1444
1381, 1381, 1382, 1446, 1445
1382, 1382, 1383, 1447, 1446
1383, 1383, 1384, 1448, 1447
1384, 1384, 1385, 1449, 1448
1385, 1385, 1386, 1450, 1449
1386, 1386, 1387, 1451, 1450
1387, 1387, 1388, 1452, 1451
1388, 1388, 1389, 1453, 1452
1389, 1389, 1390, 1454, 1453
1390, 1390, 1391, 1455, 1454
1391, 1391, 1392, 1456, 1455
1392, 1392, 1393, 1457, 1456
1393, 1393, 1394, 1458, 1457
1394, 1394, 1395, 1459, 1458
1395, 1395, 1396, 1460, 1459
1396, 1396, 1397, 1461, 1460
1397, 1397, 1398, 1462, 1461
1398, 1398, 1399, 1463, 1462
1399, 1399, 1400, 1464, 1463
1400, 1400, 1401, 1465, 1464
1401, 1401, 1402, 1466, 1465
1402, 1402, 1403, 1467, 1466
1403, 1403, 1404, 1468, 1467
1404, 1404, 1405, 1469, 1468
1405, 1405, 1406, 1470, 1469
1406, 1406, 1407, 1471, 1470
1407, 1407, 1408, 1472, 1471
1408, 1408, 1345, 1409, 1472
1409, 1409, 1410, 1474, 1473
1410, 1410, 1411, 1475, 1474
1411, 1411, 1412, 1476, 1475
1412, 1412, 1413, 1477, 1476
1413, 1413, 1414, 1478, 1477
1414, 1414, 1415, 1479, 1478
1415, 1415, 1416, 1480, 1479
1416, 1416, 1417, 1481, 1480
1417, 1417, 1418, 1482, 1481
1418, 1418, 1419, 1483, 1482
1419, 1419, 1420, 1484, 1483
1420, 1420, 1421, 1485, 1484
1421, 1421, 1422, 1486, 1485
1422, 1422, 1423, 1487, 1486
1423, 1423, 1424, 1488, 1487
1424, 1424, 1425, 1489, 1488
1425, 1425, 1426, 1490, 1489
1426, 1426, 1427, 1491, 1490
1427, 1427, 1428, 1492, 1491
1428, 1428, 1429, 1493, 1492
1429, 1429, 1430, 1494, 1493
1430, 1430, 1431, 1495, 1494
1431, 1431, 1432, 1496, 1495
1432, 1432, 1433, 1497, 1496
1433, 1433, 1434, 1498, 1497
1434, 1434, 1435, 1499, 1498
1435, 1435, 1436, 1500, 1499
1436, 1436, 1437, 1501, 1500
1437, 1437, 1438, 1502, 1501
1438, 1438, 1439, 1503, 1502
1439, 1439, 1440, 1504, 1503
1440, 1440, 1441, 1505, 1504
1441, 1441, 1442, 1506, 1505
1442, 1442, 1443, 1507, 1506
1443, 1443, 1444, 1508, 1507
1444, 1444, 1445, 1509, 1508
1445, 1445, 1446, 1510, 1509
1446, 1446, 1447, 1511, 1510
1447, 1447, 1448, 1512, 1511
1448, 1448, 1449, 1513, 1512
1449, 1449, 1450, 1514, 1513
1450, 1450, 1451, 1515, 1514
1451, 1451, 1452, 1516, 1515
1452, 1452, 1453, 1517, 1516
1453, 1453, 1454, 1518, 1517
1454, 1454, 1455, 1519, 1518
1455, 1455, 1456, 1520, 1519
1456, 1456, 1457, 1521, 1520
1457, 1457, 1458, 1522, 1521
1458, 1458, 1459, 1523, 1522
1459, 1459, 1460, 1524, 1523
1460, 1460, 1461, 1525, 1524
1461, 1461, 1462, 1526, 1525
1462, 1462, 1463, 1527, 1526
1463, 1463, 1464, 1528, 1527
1464, 1464, 1465, 1529, 1528
1465, 1465, 1466, 1530, 1529
1466, 1466, 1467, 1531, 1530
1467, 1467, 1468, 1532, 1531
1468, 1468, 1469, 1533, 1532
1469, 1469, 1470, 1534, 1533
1470, 1470, 1471, 1535, 1534
1471, 1471, 1472, 1536, 1535
1472, 1472, 1409, 1473, 1536
1473, 1473, 1474, 1538, 1537
1474, 1474, 1475, 1539, 1538
1475, 1475, 1476, 1540, 1539
1476, 1476, 1477, 1541, 1540
1477, 1477, 1478, 1542, 1541
1478, 1478, 1479, 1543, 1542
1479, 1479, 1480, 1544, 1543
1480, 1480, 1481, 1545, 1544
1481, 1481, 1482, 1546, 1545
1482, 1482, 1483, 1547, 1546
1483, 1483, 1484, 1548, 1547
1484, 1484, 1485, 1549, 1548
1485, 1485, 1486, 1550, 1549
1486, 1486, 1487, 1551, 1550
1487, 1487, 1488, 1552, 1551
1488, 1488, 1489, 1553, 1552
1489, 1489, 1490, 1554, 1553
1490, 1490, 1491, 1555, 1554
1491, 1491, 1492, 1556, 1555
1492, 1492, 1493, 1557, 1556
1493, 1493, 1494, 1558, 1557
1494, 1494, 1495, 1559, 1558
1495, 1495, 1496, 1560, 1559
1496, 1496, 1497, 1561, 1560
1497, 1497, 1498, 1562, 1561
1498, 1498, 1499, 1563, 1562
1499, 1499, 1500, 1564, 1563
1500, 1500, 1501, 1565, 1564
1501, 1501, 1502, 1566, 1565
1502, 1502, 1503, 1567, 1566
1503, 1503, 1504, 1568, 1567
1504, 1504, 1505, 1569, 1568
1505, 1505, 1506, 1570, 1569
1506, 1506, 1507, 1571, 1570
1507, 1507, 1508, 1572, 1571
1508, 1508, 1509, 1573, 1572
1509, 1509, 1510, 1574, 1573
1510, 1510, 1511, 1575, 1574
1511, 1511, 1512, 1576, 1575
1512, 1512, 1513, 1577, 1576
1513, 1513, 1514, 1578, 1577
1514, 1514, 1515, 1579, 1578
1515, 1515, 1516, 1580, 1579
1516, 1516, 1517, 1581, 1580
1517, 1517, 1518, 1582, 1581
1518, 1518, 1519, 1583, 1582
1519, 1519, 1520, 1584, 1583
1520, 1520, 1521, 1585, 1584
1521, 1521, 1522, 1586, 1585
1522, 1522, 1523, 1587, 1586
1523, 1523, 1524, 1588, 1587
1524, 1524, 1525, 1589, 1588
1525, 1525, 1526, 1590, 1589
1526, 1526, 1527, 1591, 1590
1527, 1527, 1528, 1592, 1591
1528, 1528, 1529, 1593, 1592
1529, 1529, 1530, 1594, 1593
1530, 1530, 1531, 1595, 1594
1531, 1531, 1532, 1596, 1595
1532, 1532, 1533, 1597, 1596
1533, 1533, 1534, 1598, 1597
1534, 1534, 1535, 1599, 1598
1535, 1535, 1536, 1600, 1599
1536, 1536, 1473, 1537, 1600
1537, 1537, 1538, 1602, 1601
1538, 1538, 1539, 1603, 1602
1539, 1539, 1540, 1604, 1603
1540, 1540, 1541, 1605, 1604
1541, 1541, 1542, 1606, 1605
1542, 1542, 1543, 1607, 1606
1543, 1543, 1544, 1608, 1607
1544, 1544, 1545, 1609, 1608
1545, 1545, 1546, 1610, 1609
1546, 1546, 1547, 1611, 1610
1547, 1547, 1548, 1612, 1611
1548, 1548, 1549, 1613, 1612
1549, 1549, 1550, 1614, 1613
1550, 1550, 1551, 1615, 1614
1551, 1551, 1552, 1616, 1615
1552, 1552, 1553, 1617, 1616
1553, 1553, 1554, 1618, 1617
1554, 1554, 1555, 1619, 1618
1555, 1555, 1556, 1620, 1619
1556, 1556, 1557, 1621, 1620
1557, 1557, 1558, 1622, 1621
1558, 1558, 1559, 1623, 1622
1559, 1559, 1560, 1624, 1623
1560, 1560, 1561, 1625, 1624
1561, 1561, 1562, 1626, 1625
1562, 1562, 1563, 1627, 1626
1563, 1563, 1564, 1628, 1627
1564, 1564, 1565, 1629, 1628
1565, 1565, 1566, 1630, 1629
1566, 1566, 1567, 1631, 1630
1567, 1567, 1568, 1632, 1631
1568, 1568, 1569, 1633, 1632
1569, 1569, 1570, 1634, 1633
1570, 1570, 1571, 1635, 1634
1571, 1571, 1572, 1636, 1635
1572, 1572, 1573, 1637, 1636
1573, 1573, 1574, 1638, 1637
1574, 1574, 1575, 1639, 1638
1575, 1575, 1576, 1640, 1639
1576, 1576, 1577, 1641, 1640
1577, 1577, 1578, 1642, 1641
1578, 1578, 1579, 1643, 1642
1579, 1579, 1580, 1644, 1643
1580, 1580, 1581, 1645, 1644
1581, 1581, 1582, 1646, 1645
1582, 1582, 1583, 1647, 1646
1583, 1583, 1584, 1648, 1647
1584, 1584, 1585, 1649, 1648
1585, 1585, 1586, 1650, 1649
1586, 1586, 1587, 1651, 1650
1587, 1587, 1588, 1652, 1651
1588, 1588, 1589, 1653, 1652
1589, 1589, 1590, 1654, 1653
1590, 1590, 1591, 1655, 1654
1591, 1591, 1592, 1656, 1655
1592, 1592, 1593, 1657, 1656
1593, 1593, 1594, 1658, 1657
1594, 1594, 1595, 1659, 1658
1595, 1595, 1596, 1660, 1659
1596, 1596, 1597, 1661, 1660
1597, 1597, 1598, 1662, 1661
1598, 1598, 1599, 1663, 1662
1599, 1599, 1600, 1664, 1663
1600, 1600, 1537, 1601, 1664
1601, 1601, 1602, 1666, 1665
1602, 1602, 1603, 1667, 1666
1603, 1603, 1604, 1668, 1667
1604, 1604, 1605, 1669, 1668
1605, 1605, 1606, 1670, 1669
1606, 1606, 1607, 1671, 1670
1607, 1607, 1608, 1672, 1671
1608, 1608, 1609, 1673, 1672
1609, 1609, 1610, 1674, 1673
1610, 1610, 1611, 1675, 1674
1611, 1611, 1612, 1676, 1675
1612, 1612, 1613, 1677, 1676
1613, 1613, 1614, 1678, 1677
1614, 1614, 1615, 1679, 1678
1615, 1615, 1616, 1680, 1679
1616, 1616, 1617, 1681, 1680
1617, 1617, 1618, 1682, 1681
1618, 1618, 1619, 1683, 1682
1619, 1619, 1620, 1684, 1683
1620, 1620, 1621, 1685, 1684
1621, 1621, 1622, 1686, 1685
1622, 1622, 1623, 1687, 1686
1623, 1623, 1624, 1688, 1687
1624, 1624, 1625, 1689, 1688
1625, 1625, 1626, 1690, 1689
1626, 1626, 1627, 1691, 1690
1627, 1627, 1628, 1692, 1691
1628, 1628, 1629, 1693, 1692
1629, 1629, 1630, 1694, 1693
1630, 1630, 1631, 1695, 1694
1631, 1631, 1632, 1696, 1695
1632, 1632, 1633, 1697, 1696
1633, 1633, 1634, 1698, 1697
1634, 1634, 1635, 1699, 1698
1635, 1635, 1636, 1700, 1699
1636, 1636, 1637, 1701, 1700
1637, 1637, 1638, 1702, 1701
1638, 1638, 1639, 1703, 1702
1639, 1639, 1640, 1704, 1703
1640, 1640, 1641, 1705, 1704
1641, 1641, 1642, 1706, 1705
1642, 1642, 1643, 1707, 1706
1643, 1643, 1644, 1708, 1707
1644, 1644, 1645, 1709, 1708
1645, 1645, 1646, 1710, 1709
1646, 1646, 1647, 1711, 1710
1647, 1647, 1648, 1712, 1711
1648, 1648, 1649, 1713, 1712
1649, 1649, 1650, 1714, 1713
1650, 1650, 1651, 1715, 1714
1651, 1651, 1652, 1716, 1715
1652, 1652, 1653, 1717, 1716
1653, 1653, 1654, 1718, 1717
1654, 1654, 1655, 1719, 1718
1655, 1655, 1656, 1720, 1719
1656, 1656, 1657, 1721, 1720
1657, 1657, 1658, 1722, 1721
1658, 1658, 1659, 1723, 1722
1659, 1659, 1660, 1724, 1723
1660, 1660, 1661, 1725, 1724
1661, 1661, 1662, 1726, 1725
1662, 1662, 1663, 1727, 1726
1663, 1663, 1664, 1728, 1727
1664, 1664, 1601, 1665, 1728
1665, 1665, 1666, 1730, 1729
1666, 1666, 1667, 1731, 1730
1667, 1667, 1668, 1732, 1731
1668, 1668, 1669, 1733, 1732
1669, 1669, 1670, 1734, 1733
1670, 1670, 1671, 1735, 1734
1671, 1671, 1672, 1736, 1735
1672, 1672, 1673, 1737, 1736
1673, 1673, 1674, 1738, 1737
1674, 1674, 1675, 1739, 1738
1675, 1675, 1676, 1740, 1739
1676, 1676, 1677, 1741, 1740
1677, 1677, 1678, 1742, 1741
1678, 1678, 1679, 1743, 1742
1679, 1679, 1680, 1744, 1743
1680, 1680, 1681, 1745, 1744
1681, 1681, 1682, 1746, 1745
1682, 1682, 1683, 1747, 1746
1683, 1683, 1684, 1748, 1747
1684, 1684, 1685, 1749, 1748
1685, 1685, 1686, 1750, 1749
1686, 1686, 1687, 1751, 1750
1687, 1687, 1688, 1752, 1751
1688, 1688, 1689, 1753, 1752
1689, 1689, 1690, 1754, 1753
1690, 1690, 1691, 1755, 1754
1691, 1691, 1692, 1756, 1755
1692, 1692, 1693, 1757, 1756
1693, 1693, 1694, 1758, 1757
1694, 1694, 1695, 1759, 1758
1695, 1695, 1696, 1760, 1759
1696, 1696, 1697, 1761, 1760
1697, 1697, 1698, 1762, 1761
1698, 1698, 1699, 1763, 1762
1699, 1699, 1700, 1764, 1763
1700, 1700, 1701, 1765, 1764
1701, 1701, 1702, 1766, 1765
1702, 1702, 1703, 1767, 1766
1703, 1703, 1704, 1768, 1767
1704, 1704, 1705, 1769, 1768
1705, 1705, 1706, 1770, 1769
1706, 1706, 1707, 1771, 1770
1707, 1707, 1708, 1772, 1771
1708, 1708, 1709, 1773, 1772
1709, 1709, 1710, 1774, 1773
1710, 1710, 1711, 1775, 1774
1711, 1711, 1712, 1776, 1775
1712, 1712, 1713, 1777, 1776
1713, 1713, 1714, 1778, 1777
1714, 1714, 1715, 1779, 1778
1715, 1715, 1716, 1780, 1779
1716, 1716, 1717, 1781, 1780
1717, 1717, 1718, 1782, 1781
1718, 1718, 1719, 1783, 1782
1719, 1719, 1720, 1784, 1783
1720, 1720, 1721, 1785, 1784
1721, 1721, 1722, 1786, 1785
1722, 1722, 1723, 1787, 1786
1723, 1723, 1724, 1788, 1787
1724, 1724, 1725, 1789, 1788
1725, 1725, 1726, 1790, 1789
1726, 1726, 1727, 1791, 1790
1727, 1727, 1728, 1792, 1791
1728, 1728, 1665, 1729, 1792
1729, 1729, 1730, 1794, 1793
1730, 1730, 1731, 1795, 1794
1731, 1731, 1732, 1796, 1795
1732, 1732, 1733, 1797, 1796
1733, 1733, 1734, 1798, 1797
1734, 1734, 1735, 1799, 1798
1735, 1735, 1736, 1800, 1799
1736, 1736, 1737, 1801, 1800
1737, 1737, 1738, 1802, 1801
1738, 1738, 1739, 1803, 1802
1739, 1739, 1740, 1804, 1803
1740, 1740, 1741, 1805, 1804
1741, 1741, 1742, 1806, 1805
1742, 1742, 1743, 1807, 1806
1743, 1743, 1744, 1808, 1807
1744, 1744, 1745, 1809, 1808
1745, 1745, 1746, 1810, 1809
1746, 1746, 1747, 1811, 1810
1747, 1747, 1748, 1812, 1811
1748, 1748, 1749, 1813, 1812
1749, 1749, 1750, 1814, 1813
1750, 1750, 1751, 1815, 1814
1751, 1751, 1752, 1816, 1815
1752, 1752, 1753, 1817, 1816
1753, 1753, 1754, 1818, 1817
1754, 1754, 1755, 1819, 1818
1755, 1755, 1756, 1820, 1819
1756, 1756, 1757, 1821, 1820
1757, 1757, 1758, 1822, 1821
1758, 1758, 1759, 1823, 1822
1759, 1759, 1760, 1824, 1823
1760, 1760, 1761, 1825, 1824
1761, 1761, 1762, 1826, 1825
1762, 1762, 1763, 1827, 1826
1763, 1763, 1764, 1828, 1827
1764, 1764, 1765, 1829, 1828
1765, 1765, 1766, 1830, 1829
1766, 1766, 1767, 1831, 1830
1767, 1767, 1768, 1832, 1831
1768, 1768, 1769, 1833, 1832
1769, 1769, 1770, 1834, 1833
1770, 1770, 1771, 1835, 1834
1771, 1771, 1772, 1836, 1835
1772, 1772, 1773, 1837, 1836
1773, 1773, 1774, 1838, 1837
1774, 1774, 1775, 1839, 1838
1775, 1775, 1776, 1840, 1839
1776, 1776, 1777, 1841, 1840
1777, 1777, 1778, 1842, 1841
1778, 1778, 1779, 1843, 1842
1779, 1779, 1780, 1844, 1843
1780, 1780, 1781, 1845, 1844
1781, 1781, 1782, 1846, 1845
1782, 1782, 1783, 1847, 1846
1783, 1783, 1784, 1848, 1847
1784, 1784, 1785, 1849, 1848
1785, 1785, 1786, 1850, 1849
1786, 1786, 1787, 1851, 1850
1787, 1787, 1788, 1852, 1851
1788, 1788, 1789, 1853, 1852
1789, 1789, 1790, 1854, 1853
1790, 1790, 1791, 1855, 1854
1791, 1791, 1792, 1856, 1855
1792, 1792, 1729, 1793, 1856
1793, 1793, 1794, 1858, 1857
1794, 1794, 1795, 1859, 1858
1795, 1795, 1796, 1860, 1859
1796, 1796, 1797, 1861, 1860
1797, 1797, 1798, 1862, 1861
1798, 1798, 1799, 1863, 1862
1799, 1799, 1800, 1864, 1863
1800, 1800, 1801, 1865, 1864
1801, 1801, 1802, 1866, 1865
1802, 1802, 1803, 1867, 1866
1803, 1803, 1804, 1868, 1867
1804, 1804, 1805, 1869, 1868
1805, 1805, 1806, 1870, 1869
1806, 1806, 1807, 1871, 1870
1807, 1807, 1808, 1872, 1871
1808, 1808, 1809, 1873, 1872
1809, 1809, 1810, 1874, 1873
1810, 1810, 1811, 1875, 1874
1811, 1811, 1812, 1876, 1875
1812, 1812, 1813, 1877, 1876
1813, 1813, 1814, 1878, 1877
1814, 1814, 1815, 1879, 1878
1815, 1815, 1816, 1880, 1879
1816, 1816, 1817, 1881, 1880
1817, 1817, 1818, 1882, 1881
1818, 1818, 1819, 1883, 1882
1819, 1819, 1820, 1884, 1883
1820, 1820, 1821, 1885, 1884
1821, 1821, 1822, 1886, 1885
1822, 1822, 1823, 1887, 1886
1823, 1823, 1824, 1888, 1887
1824, 1824, 1825, 1889, 1888
1825, 1825, 1826, 1890, 1889
1826, 1826, 1827, 1891, 1890
1827, 1827, 1828, 1892, 1891
1828, 1828, 1829, 1893, 1892
1829, 1829, 1830, 1894, 1893
1830, 1830, 1831, 1895, 1894
1831, 1831, 1832, 1896, 1895
1832, 1832, 1833, 1897, 1896
1833, 1833, 1834, 1898, 1897
1834, 1834, 1835, 1899, 1898
1835, 1835, 1836, 1900, 1899
1836, 1836, 1837, 1901, 1900
1837, 1837, 1838, 1902, 1901
1838, 1838, 1839, 1903, 1902
1839, 1839, 1840, 1904, 1903
1840, 1840, 1841, 1905, 1904
1841, 1841, 1842, 1906, 1905
1842, 1842, 1843, 1907, 1906
1843, 1843, 1844, 1908, 1907
1844, 1844, 1845, 1909, 1908
1845, 1845, 1846, 1910, 1909
1846, 1846, 1847, 1911, 1910
1847, 1847, 1848, 1912, 1911
1848, 1848, 1849, 1913, 1912
1849, 1849, 1850, 1914, 1913
1850, 1850, 1851, 1915, 1914
1851, 1851, 1852, 1916, 1915
1852, 1852, 1853, 1917, 1916
1853, 1853, 1854, 1918, 1917
1854, 1854, 1855, 1919, 1918
1855, 1855, 1856, 1920, 1919
1856, 1856, 1793, 1857, 1920
1857, 1857, 1858, 1922, 1921
1858, 1858, 1859, 1923, 1922
1859, 1859, 1860, 1924, 1923
1860, 1860, 1861, 1925, 1924
1861, 1861, 1862, 1926, 1925
1862, 1862, 1863, 1927, 1926
1863, 1863, 1864, 1928, 1927
1864, 1864, 1865, 1929, 1928
1865, 1865, 1866, 1930, 1929
1866, 1866, 1867, 1931, 1930
1867, 1867, 1868, 1932, 1931
1868, 1868, 1869, 1933, 1932
1869, 1869, 1870, 1934, 1933
1870, 1870, 1871, 1935, 1934
1871, 1871, 1872, 1936, 1935
1872, 1872, 1873, 1937, 1936
1873, 1873, 1874, 1938, 1937
1874, 1874, 1875, 1939, 1938
1875, 1875, 1876, 1940, 1939
1876, 1876, 1877, 1941, 1940
1877, 1877, 1878, 1942, 1941
1878, 1878, 1879, 1943, 1942
1879, 1879, 1880, 1944, 1943
1880, 1880, 1881, 1945, 1944
1881, 1881, 1882, 1946, 1945
1882, 1882, 1883, 1947, 1946
1883, 1883, 1884, 1948, 1947
1884, 1884, 1885, 1949, 1948
1885, 1885, 1886, 1950, 1949
1886, 1886, 1887, 1951, 1950
1887, 1887, 1888, 1952, 1951
1888, 1888, 1889, 1953, 1952
1889, 1889, 1890, 1954, 1953
1890, 1890, 1891, 1955, 1954
1891, 1891, 1892, 1956, 1955
1892, 1892, 1893, 1957, 1956
1893, 1893, 1894, 1958, 1957
1894, 1894, 1895, 1959, 1958
1895, 1895, 1896, 1960, 1959
1896, 1896, 1897, 1961, 1960
1897, 1897, 1898, 1962, 1961
1898, 1898, 1899, 1963, 1962
1899, 1899, 1900, 1964, 1963
1900, 1900, 1901, 1965, 1964
1901, 1901, 1902, 1966, 1965
1902, 1902, 1903, 1967, 1966
1903, 1903, 1904, 1968, 1967
1904, 1904, 1905, 1969, 1968
1905, 1905, 1906, 1970, 1969
1906, 1906, 1907, 1971, 1970
1907, 1907, 1908, 1972, 1971
1908, 1908, 1909, 1973, 1972
1909, 1909, 1910, 1974, 1973
1910, 1910, 1911, 1975, 1974
1911, 1911, 1912, 1976, 1975
1912, 1912, 1913, 1977, 1976
1913, 1913, 1914, 1978, 1977
1914, 1914, 1915, 1979, 1978
1915, 1915, 1916, 1980, 1979
1916, 1916, 1917, 1981, 1980
1917, 1917, 1918, 1982, 1981
1918, 1918, 1919, 1983, 1982
1919, 1919, 1920, 1984, 1983
1920, 1920, 1857, 1921, 1984
1921, 1921, 1922, 1986, 1985
1922, 1922, 1923, 1987, 1986
1923, 1923, 1924, 1988, 1987
1924, 1924, 1925, 1989, 1988
1925, 1925, 1926, 1990, 1989
1926, 1926, 1927, 1991, 1990
1927, 1927, 1928, 1992, 1991
1928, 1928, 1929, 1993, 1992
1929, 1929, 1930, 1994, 1993
1930, 1930, 1931, 1995, 1994
1931, 1931, 1932, 1996, 1995
1932, 1932, 1933, 1997, 1996
1933, 1933, 1934, 1998, 1997
1934, 1934, 1935, 1999, 1998
1935, 1935, 1936, 2000, 1999
1936, 1936, 1937, 2001, 2000
1937, 1937, 1938, 2002, 2001
1938, 1938, 1939, 2003, 2002
1939, 1939, 1940, 2004, 2003
1940, 1940, 1941, 2005, 2004
1941, 1941, 1942, 2006, 2005
1942, 1942, 1943, 2007, 2006
1943, 1943, 1944, 2008, 2007
1944, 1944, 1945, 2009, 2008
1945, 1945, 1946, 2010, 2009
1946, 1946, 1947, 2011, 2010
1947, 1947, 1948, 2012, 2011
1948, 1948, 1949, 2013, 2012
1949, 1949, 1950, 2014, 2013
1950, 1950, 1951, 2015, 2014
1951, 1951, 1952, 2016, 2015
1952, 1952, 1953, 2017, 2016
1953, 1953, 1954, 2018, 2017
1954, 1954, 1955, 2019, 2018
1955, 1955, 1956, 2020, 2019
1956, 1956, 1957, 2021, 2020
1957, 1957, 1958, 2022, 2021
1958, 1958, 1959, 2023, 2022
1959, 1959, 1960, 2024, 2023
1960, 1960, 1961, 2025, 2024
1961, 1961, 1962, 2026, 2025
1962, 1962, 1963, 2027, 2026
1963, 1963, 1964, 2028, 2027
1964, 1964, 1965, 2029, 2028
1965, 1965, 1966, 2030, 2029
1966, 1966, 1967, 2031, 2030
1967, 1967, 1968, 2032, 2031
1968, 1968, 1969, 2033, 2032
1969, 1969, 1970, 2034, 2033
1970, 1970, 1971, 2035, 2034
1971, 1971, 1972, 2036, 2035
1972, 1972, 1973, 2037, 2036
1973, 1973, 1974, 2038, 2037
1974, 1974, 1975, 2039, 2038
1975, 1975, 1976, 2040, 2039
1976, 1976, 1977, 2041, 2040
1977, 1977, 1978, 2042, 2041
1978, 1978, 1979, 2043, 2042
1979, 1979, 1980, 2044, 2043
1980, 1980, 1981, 2045, 2044
1981, 1981, 1982, 2046, 2045
1982, 1982, 1983, 2047, 2046
1983, 1983, 1984, 2048, 2047
1984, 1984, 1921, 1985, 2048
1985, 1985, 1986, 2050, 2049
1986, 1986, 1987, 2051, 2050
1987, 1987, 1988, 2052, 2051
1988, 1988, 1989, 2053, 2052
1989, 1989, 1990, 2054, 2053
1990, 1990, 1991, 2055, 2054
1991, 1991, 1992, 2056, 2055
1992, 1992, 1993, 2057, 2056
1993, 1993, 1994, 2058, 2057
1994, 1994, 1995, 2059, 2058
1995, 1995, 1996, 2060, 2059
1996, 1996, 1997, 2061, 2060
1997, 1997, 1998, 2062, 2061
1998, 1998, 1999, 2063, 2062
1999, 1999, 2000, 2064, 2063
2000, 2000, 2001, 2065, 2064
2001, 2001, 2002, 2066, 2065
2002, 2002, 2003, 2067, 2066
2003, 2003, 2004, 2068, 2067
2004, 2004, 2005, 2069, 2068
2005, 2005, 2006, 2070, 2069
2006, 2006, 2007, 2071, 2070
2007, 2007, 2008, 2072, 2071
2008, 2008, 2009, 2073, 2072
2009, 2009, 2010, 2074, 2073
2010, 2010, 2011, 2075, 2074
2011, 2011, 2012, 2076, 2075
2012, 2012, 2013, 2077, 2076
2013, 2013, 2014, 2078, 2077
2014, 2014, 2015, 2079, 2078
2015, 2015, 2016, 2080, 2079
2016, 2016, 2017, 2081, 2080
2017, 2017, 2018, 2082, 2081
2018, 2018, 2019, 2083, 2082
2019, 2019, 2020, 2084, 2083
2020, 2020, 2021, 2085, 2084
2021, 2021, 2022, 2086, 2085
2022, 2022, 2023, 2087, 2086
2023, 2023, 2024, 2088, 2087
2024, 2024, 2025, 2089, 2088
2025, 2025, 2026, 2090, 2089
2026, 2026, 2027, 2091, 2090
2027, 2027, 2028, 2092, 2091
2028, 2028, 2029, 2093, 2092
2029, 2029, 2030, 2094, 2093
2030, 2030, 2031, 2095, 2094
2031, 2031, 2032, 2096, 2095
2032, 2032, 2033, 2097, 2096
2033, 2033, 2034, 2098, 2097
2034, 2034, 2035, 2099, 2098
2035, 2035, 2036, 2100, 2099
2036, 2036, 2037, 2101, 2100
2037, 2037, 2038, 2102, 2101
2038, 2038, 2039, 2103, 2102
2039, 2039, 2040, 2104, 2103
2040, 2040, 2041, 2105, 2104
2041, 2041, 2042, 2106, 2105
2042, 2042, 2043, 2107, 2106
2043, 2043, 2044, 2108, 2107
2044, 2044, 2045, 2109, 2108
2045, 2045, 2046, 2110, 2109
2046, 2046, 2047, 2111, 2110
2047, 2047, 2048, 2112, 2111
2048, 2048, 1985, 2049, 2112
2049, 2049, 2050, 2114, 2113
2050, 2050, 2051, 2115, 2114
2051, 2051, 2052, 2116, 2115
2052, 2052, 2053, 2117, 2116
2053, 2053, 2054, 2118, 2117
2054, 2054, 2055, 2119, 2118
2055, 2055, 2056, 2120, 2119
2056, 2056, 2057, 2121, 2120
2057, 2057, 2058, 2122, 2121
2058, 2058, 2059, 2123, 2122
2059, 2059, 2060, 2124, 2123
2060, 2060, 2061, 2125, 2124
2061, 2061, 2062, 2126, 2125
2062, 2062, 2063, 2127, 2126
2063, 2063, 2064, 2128, 2127
2064, 2064, 2065, 2129, 2128
2065, 2065, 2066, 2130, 2129
2066, 2066, 2067, 2131, 2130
2067, 2067, 2068, 2132, 2131
2068, 2068, 2069, 2133, 2132
2069, 2069, 2070, 2134, 2133
2070, 2070, 2071, 2135, 2134
2071, 2071, 2072, 2136, 2135
2072, 2072, 2073, 2137, 2136
2073, 2073, 2074, 2138, 2137
2074, 2074, 2075, 2139, 2138
2075, 2075, 2076, 2140, 2139
2076, 2076, 2077, 2141, 2140
2077, 2077, 2078, 2142, 2141
2078, 2078, 2079, 2143, 2142
2079, 2079, 2080, 2144, 2143
2080, 2080, 2081, 2145, 2144
2081, 2081, 2082, 2146, 2145
2082, 2082, 2083, 2147, 2146
2083, 2083, 2084, 2148, 2147
2084, 2084, 2085, 2149, 2148
2085, 2085, 2086, 2150, 2149
2086, 2086, 2087, 2151, 2150
2087, 2087, 2088, 2152, 2151
2088, 2088, 2089, 2153, 2152
2089, 2089, 2090, 2154, 2153
2090, 2090, 2091, 2155, 2154
2091, 2091, 2092, 2156, 2155
2092, 2092, 2093, 2157, 2156
2093, 2093, 2094, 2158, 2157
2094, 2094, 2095, 2159, 2158
2095, 2095, 2096, 2160, 2159
2096, 2096, 2097, 2161, 2160
2097, 2097, 2098, 2162, 2161
2098, 2098, 2099, 2163, 2162
2099, 2099, 2100, 2164, 2163
2100, 2100, 2101, 2165, 2164
2101, 2101, 2102, 2166, 2165
2102, 2102, 2103, 2167, 2166
2103, 2103, 2104, 2168, 2167
2104, 2104, 2105, 2169, 2168
2105, 2105, 2106, 2170, 2169
2106, 2106, 2107, 2171, 2170
2107, 2107, 2108, 2172, 2171
2108, 2108, 2109, 2173, 2172
2109, 2109, 2110, 2174, 2173
2110, 2110, 2111, 2175, 2174
2111, 2111, 2112, 2176, 2175
2112, 2112, 2049, 2113, 2176
2113, 2113, 2114, 2178, 2177
2114, 2114, 2115, 2179, 2178
2115, 2115, 2116, 2180, 2179
2116, 2116, 2117, 2181, 2180
2117, 2117, 2118, 2182, 2181
2118, 2118, 2119, 2183, 2182
2119, 2119, 2120, 2184, 2183
2120, 2120, 2121, 2185, 2184
2121, 2121, 2122, 2186, 2185
2122, 2122, 2123, 2187, 2186
2123, 2123, 2124, 2188, 2187
2124, 2124, 2125, 2189, 2188
2125, 2125, 2126, 2190, 2189
2126, 2126, 2127, 2191, 2190
2127, 2127, 2128, 2192, 2191
2128, 2128, 2129, 2193, 2192
2129, 2129, 2130, 2194, 2193
2130, 2130, 2131, 2195, 2194
2131, 2131, 2132, 2196, 2195
2132, 2132, 2133, 2197, 2196
2133, 2133, 2134, 2198, 2197
2134, 2134, 2135, 2199, 2198
2135, 2135, 2136, 2200, 2199
2136, 2136, 2137, 2201, 2200
2137, 2137, 2138, 2202, 2201
2138, 2138, 2139, 2203, 2202
2139, 2139, 2140, 2204, 2203
2140, 2140, 2141, 2205, 2204
2141, 2141, 2142, 2206, 2205
2142, 2142, 2143, 2207, 2206
2143, 2143, 2144, 2208, 2207
2144, 2144, 2145, 2209, 2208
2145, 2145, 2146, 2210, 2209
2146, 2146, 2147, 2211, 2210
2147, 2147, 2148, 2212, 2211
2148, 2148, 2149, 2213, 2212
2149, 2149, 2150, 2214, 2213
2150, 2150, 2151, 2215, 2214
2151, 2151, 2152, 2216, 2215
2152, 2152, 2153, 2217, 2216
2153, 2153, 2154, 2218, 2217
2154, 2154, 2155, 2219, 2218
2155, 2155, 2156, 2220, 2219
2156, 2156, 2157, 2221, 2220
2157, 2157, 2158, 2222, 2221
2158, 2158, 2159, 2223, 2222
2159, 2159, 2160, 2224, 2223
2160, 2160, 2161, 2225, 2224
2161, 2161, 2162, 2226, 2225
2162, 2162, 2163, 2227, 2226
2163, 2163, 2164, 2228, 2227
2164, 2164, 2165, 2229, 2228
2165, 2165, 2166, 2230, 2229
2166, 2166, 2167, 2231, 2230
2167, 2167, 2168, 2232, 2231
2168, 2168, 2169, 2233, 2232
2169, 2169, 2170, 2234, 2233
2170, 2170, 2171, 2235, 2234
2171, 2171, 2172, 2236, 2235
2172, 2172, 2173, 2237, 2236
2173, 2173, 2174, 2238, 2237
2174, 2174, 2175, 2239, 2238
2175, 2175, 2176, 2240, 2239
2176, 2176, 2113, 2177, 2240
2177, 2177, 2178, 2242, 2241
2178, 2178, 2179, 2243, 2242
2179, 2179, 2180, 2244, 2243
2180, 2180, 2181, 2245, 2244
2181, 2181, 2182, 2246, 2245
2182, 2182, 2183, 2247, 2246
2183, 2183, 2184, 2248, 2247
2184, 2184, 2185, 2249, 2248
2185, 2185, 2186, 2250, 2249
2186, 2186, 2187, 2251, 2250
2187, 2187, 2188, 2252, 2251
2188, 2188, 2189, 2253, 2252
2189, 2189, 2190, 2254, 2253
2190, 2190, 2191, 2255, 2254
2191, 2191, 2192, 2256, 2255
2192, 2192, 2193, 2257, 2256
2193, 2193, 2194, 2258, 2257
2194, 2194, 2195, 2259, 2258
2195, 2195, 2196, 2260, 2259
2196, 2196, 2197, 2261, 2260
2197, 2197, 2198, 2262, 2261
2198, 2198, 2199, 2263, 2262
2199, 2199, 2200, 2264, 2263
2200, 2200, 2201, 2265, 2264
2201, 2201, 2202, 2266, 2265
2202, 2202, 2203, 2267, 2266
2203, 2203, 2204, 2268, 2267
2204, 2204, 2205, 2269, 2268
2205, 2205, 2206, 2270, 2269
2206, 2206, 2207, 2271, 2270
2207, 2207, 2208, 2272, 2271
2208, 2208, 2209, 2273, 2272
2209, 2209, 2210, 2274, 2273
2210, 2210, 2211, 2275, 2274
2211, 2211, 2212, 2276, 2275
2212, 2212, 2213, 2277, 2276
2213, 2213, 2214, 2278, 2277
2214, 2214, 2215, 2279, 2278
2215, 2215, 2216, 2280, 2279
2216, 2216, 2217, 2281, 2280
2217, 2217, 2218, 2282, 2281
2218, 2218, 2219, 2283, 2282
2219, 2219, 2220, 2284, 2283
2220, 2220, 2221, 2285, 2284
2221, 2221, 2222, 2286, 2285
2222, 2222, 2223, 2287, 2286
2223, 2223, 2224, 2288, 2287
2224, 2224, 2225, 2289, 2288
2225, 2225, 2226, 2290, 2289
2226, 2226, 2227, 2291, 2290
2227, 2227, 2228, 2292, 2291
2228, 2228, 2229, 2293, 2292
2229, 2229, 2230, 2294, 2293
2230, 2230, 2231, 2295, 2294
2231, 2231, 2232, 2296, 2295
2232, 2232, 2233, 2297, 2296
2233, 2233, 2234, 2298, 2297
2234, 2234, 2235, 2299, 2298
2235, 2235, 2236, 2300, 2299
2236, 2236, 2237, 2301, 2300
2237, 2237, 2238, 2302, 2301
2238, 2238, 2239, 2303, 2302
2239, 2239, 2240, 2304, 2303
2240, 2240, 2177, 2241, 2304
2241, 2241, 2242, 2306, 2305
2242, 2242, 2243, 2307, 2306
2243, 2243, 2244, 2308, 2307
2244, 2244, 2245, 2309, 2308
2245, 2245, 2246, 2310, 2309
2246, 2246, 2247, 2311, 2310
2247, 2247, 2248, 2312, 2311
2248, 2248, 2249, 2313, 2312
2249, 2249, 2250, 2314, 2313
2250, 2250, 2251, 2315, 2314
2251, 2251, 2252, 2316, 2315
2252, 2252, 2253, 2317, 2316
2253, 2253, 2254, 2318, 2317
2254, 2254, 2255, 2319, 2318
2255, 2255, 2256, 2320, 2319
2256, 2256, 2257, 2321, 2320
2257, 2257, 2258, 2322, 2321
2258, 2258, 2259, 2323, 2322
2259, 2259, 2260, 2324, 2323
2260, 2260, 2261, 2325, 2324
2261, 2261, 2262, 2326, 2325
2262, 2262, 2263, 2327, 2326
2263, 2263, 2264, 2328, 2327
2264, 2264, 2265, 2329, 2328
2265, 2265, 2266, 2330, 2329
2266, 2266, 2267, 2331, 2330
2267, 2267, 2268, 2332, 2331
2268, 2268, 2269, 2333, 2332
2269, 2269, 2270, 2334, 2333
2270, 2270, 2271, 2335, 2334
2271, 2271, 2272, 2336, 2335
2272, 2272, 2273, 2337, 2336
2273, 2273, 2274, 2338, 2337
2274, 2274, 2275, 2339, 2338
2275, 2275, 2276, 2340, 2339
2276, 2276, 2277, 2341, 2340
2277, 2277, 2278, 2342, 2341
2278, 2278, 2279, 2343, 2342
2279, 2279, 2280, 2344, 2343
2280, 2280, 2281, 2345, 2344
2281, 2281, 2282, 2346, 2345
2282, 2282, 2283, 2347, 2346
2283, 2283, 2284, 2348, 2347
2284, 2284, 2285, 2349, 2348
2285, 2285, 2286, 2350, 2349
2286, 2286, 2287, 2351, 2350
2287, 2287, 2288, 2352, 2351
2288, 2288, 2289, 2353, 2352
2289, 2289, 2290, 2354, 2353
2290, 2290, 2291, 2355, 2354
2291, 2291, 2292, 2356, 2355
2292, 2292, 2293, 2357, 2356
2293, 2293, 2294, 2358, 2357
2294, 2294, 2295, 2359, 2358
2295, 2295, 2296, 2360, 2359
2296, 2296, 2297, 2361, 2360
2297, 2297, 2298, 2362, 2361
2298, 2298, 2299, 2363, 2362
2299, 2299, 2300, 2364, 2363
2300, 2300, 2301, 2365, 2364
2301, 2301, 2302, 2366, 2365
2302, 2302, 2303, 2367, 2366
2303, 2303, 2304, 2368, 2367
2304, 2304, 2241, 2305, 2368
2305, 2305, 2306, 2370, 2369
2306, 2306, 2307, 2371, 2370
2307, 2307, 2308, 2372, 2371
2308, 2308, 2309, 2373, 2372
2309, 2309, 2310, 2374, 2373
2310, 2310, 2311, 2375, 2374
2311, 2311, 2312, 2376, 2375
2312, 2312, 2313, 2377, 2376
2313, 2313, 2314, 2378, 2377
2314, 2314, 2315, 2379, 2378
2315, 2315, 2316, 2380, 2379
2316, 2316, 2317, 2381, 2380
2317, 2317, 2318, 2382, 2381
2318, 2318, 2319, 2383, 2382
2319, 2319, 2320, 2384, 2383
2320, 2320, 2321, 2385, 2384
2321, 2321, 2322, 2386, 2385
2322, 2322, 2323, 2387, 2386
2323, 2323, 2324, 2388, 2387
2324, 2324, 2325, 2389, 2388
2325, 2325, 2326, 2390, 2389
2326, 2326, 2327, 2391, 2390
2327, 2327, 2328, 2392, 2391
2328, 2328, 2329, 2393, 2392
2329, 2329, 2330, 2394, 2393
2330, 2330, 2331, 2395, 2394
2331, 2331, 2332, 2396, 2395
2332, 2332, 2333, 2397, 2396
2333, 2333, 2334, 2398, 2397
2334, 2334, 2335, 2399, 2398
2335, 2335, 2336, 2400, 2399
2336, 2336, 2337, 2401, 2400
2337, 2337, 2338, 2402, 2401
2338, 2338, 2339, 2403, 2402
2339, 2339, 2340, 2404, 2403
2340, 2340, 2341, 2405, 2404
2341, 2341, 2342, 2406, 2405
2342, 2342, 2343, 2407, 2406
2343, 2343, 2344, 2408, 2407
2344, 2344, 2345, 2409, 2408
2345, 2345, 2346, 2410, 2409
2346, 2346, 2347, 2411, 2410
2347, 2347, 2348, 2412, 2411
2348, 2348, 2349, 2413, 2412
2349, 2349, 2350, 2414, 2413
2350, 2350, 2351, 2415, 2414
2351, 2351, 2352, 2416, 2415
2352, 2352, 2353, 2417, 2416
2353, 2353, 2354, 2418, 2417
2354, 2354, 2355, 2419, 2418
2355, 2355, 2356, 2420, 2419
2356, 2356, 2357, 2421, 2420
2357, 2357, 2358, 2422, 2421
2358, 2358, 2359, 2423, 2422
2359, 2359, 2360, 2424, 2423
2360, 2360, 2361, 2425, 2424
2361, 2361, 2362, 2426, 2425
2362, 2362, 2363, 2427, 2426
2363, 2363, 2364, 2428, 2427
2364, 2364, 2365, 2429, 2428
2365, 2365, 2366, 2430, 2429
2366, 2366, 2367, 2431, 2430
2367, 2367, 2368, 2432, 2431
2368, 2368, 2305, 2369, 2432
2369, 2369, 2370, 2434, 2433
2370, 2370, 2371, 2435, 2434
2371, 2371, 2372, 2436, 2435
2372, 2372, 2373, 2437, 2436
2373, 2373, 2374, 2438, 2437
2374, 2374, 2375, 2439, 2438
2375, 2375, 2376, 2440, 2439
2376, 2376, 2377, 2441, 2440
2377, 2377, 2378, 2442, 2441
2378, 2378, 2379, 2443, 2442
2379, 2379, 2380, 2444, 2443
2380, 2380, 2381, 2445, 2444
2381, 2381, 2382, 2446, 2445
2382, 2382, 2383, 2447, 2446
2383, 2383, 2384, 2448, 2447
2384, 2384, 2385, 2449, 2448
2385, 2385, 2386, 2450, 2449
2386, 2386, 2387, 2451, 2450
2387, 2387, 2388, 2452, 2451
2388, 2388, 2389, 2453, 2452
2389, 2389, 2390, 2454, 2453
2390, 2390, 2391, 2455, 2454
2391, 2391, 2392, 2456, 2455
2392, 2392, 2393, 2457, 2456
2393, 2393, 2394, 2458, 2457
2394, 2394, 2395, 2459, 2458
2395, 2395, 2396, 2460, 2459
2396, 2396, 2397, 2461, 2460
2397, 2397, 2398, 2462, 2461
2398, 2398, 2399, 2463, 2462
2399, 2399, 2400, 2464, 2463
2400, 2400, 2401, 2465, 2464
2401, 2401, 2402, 2466, 2465
2402, 2402, 2403, 2467, 2466
2403, 2403, 2404, 2468, 2467
2404, 2404, 2405, 2469, 2468
2405, 2405, 2406, 2470, 2469
2406, 2406, 2407, 2471, 2470
2407, 2407, 2408, 2472, 2471
2408, 2408, 2409, 2473, 2472
2409, 2409, 2410, 2474, 2473
2410, 2410, 2411, 2475, 2474
2411, 2411, 2412, 2476, 2475
2412, 2412, 2413, 2477, 2476
2413, 2413, 2414, 2478, 2477
2414, 2414, 2415, 2479, 2478
2415, 2415, 2416, 2480, 2479
2416, 2416, 2417, 2481, 2480
2417, 2417, 2418, 2482, 2481
2418, 2418, 2419, 2483, 2482
2419, 2419, 2420, 2484, 2483
2420, 2420, 2421, 2485, 2484
2421, 2421, 2422, 2486, 2485
2422, 2422, 2423, 2487, 2486
2423, 2423, 2424, 2488, 2487
2424, 2424, 2425, 2489, 2488
2425, 2425, 2426, 2490, 2489
2426, 2426, 2427, 2491, 2490
2427, 2427, 2428, 2492, 2491
2428, 2428, 2429, 2493, 2492
2429, 2429, 2430, 2494, 2493
2430, 2430, 2431, 2495, 2494
2431, 2431, 2432, 2496, 2495
2432, 2432, 2369, 2433, 2496
2433, 2433, 2434, 2498, 2497
2434, 2434, 2435, 2499, 2498
2435, 2435, 2436, 2500, 2499
2436, 2436, 2437, 2501, 2500
2437, 2437, 2438, 2502, 2501
2438, 2438, 2439, 2503, 2502
2439, 2439, 2440, 2504, 2503
2440, 2440, 2441, 2505, 2504
2441, 2441, 2442, 2506, 2505
2442, 2442, 2443, 2507, 2506
2443, 2443, 2444, 2508, 2507
2444, 2444, 2445, 2509, 2508
2445, 2445, 2446, 2510, 2509
2446, 2446, 2447, 2511, 2510
2447, 2447, 2448, 2512, 2511
2448, 2448, 2449, 2513, 2512
2449, 2449, 2450, 2514, 2513
2450, 2450, 2451, 2515, 2514
2451, 2451, 2452, 2516, 2515
2452, 2452, 2453, 2517, 2516
2453, 2453, 2454, 2518, 2517
2454, 2454, 2455, 2519, 2518
2455, 2455, 2456, 2520, 2519
2456, 2456, 2457, 2521, 2520
2457, 2457, 2458, 2522, 2521
2458, 2458, 2459, 2523, 2522
2459, 2459, 2460, 2524, 2523
2460, 2460, 2461, 2525, 2524
2461, 2461, 2462, 2526, 2525
2462, 2462, 2463, 2527, 2526
2463, 2463, 2464, 2528, 2527
2464, 2464, 2465, 2529, 2528
2465, 2465, 2466, 2530, 2529
2466, 2466, 2467, 2531, 2530
2467, 2467, 2468, 2532, 2531
2468, 2468, 2469, 2533, 2532
2469, 2469, 2470, 2534, 2533
2470, 2470, 2471, 2535, 2534
2471, 2471, 2472, 2536, 2535
2472, 2472, 2473, 2537, 2536
2473, 2473, 2474, 2538, 2537
2474, 2474, 2475, 2539, 2538
2475, 2475, 2476, 2540, 2539
2476, 2476, 2477, 2541, 2540
2477, 2477, 2478, 2542, 2541
2478, 2478, 2479, 2543, 2542
2479, 2479, 2480, 2544, 2543
2480, 2480, 2481, 2545, 2544
2481, 2481, 2482, 2546, 2545
2482, 2482, 2483, 2547, 2546
2483, 2483, 2484, 2548, 2547
2484, 2484, 2485, 2549, 2548
2485, 2485, 2486, 2550, 2549
2486, 2486, 2487, 2551, 2550
2487, 2487, 2488, 2552, 2551
2488, 2488, 2489, 2553, 2552
2489, 2489, 2490, 2554, 2553
2490, 2490, 2491, 2555, 2554
2491, 2491, 2492, 2556, 2555
2492, 2492, 2493, 2557, 2556
2493, 2493, 2494, 2558, 2557
2494, 2494, 2495, 2559, 2558
2495, 2495, 2496, 2560, 2559
2496, 2496, 2433, 2497, 2560
2497, 2497, 2498, 2562, 2561
2498, 2498, 2499, 2563, 2562
2499, 2499, 2500, 2564, 2563
2500, 2500, 2501, 2565, 2564
2501, 2501, 2502, 2566, 2565
2502, 2502, 2503, 2567, 2566
2503, 2503, 2504, 2568, 2567
2504, 2504, 2505, 2569, 2568
2505, 2505, 2506, 2570, 2569
2506, 2506, 2507, 2571, 2570
2507, 2507, 2508, 2572, 2571
2508, 2508, 2509, 2573, 2572
2509, 2509, 2510, 2574, 2573
2510, 2510, 2511, 2575, 2574
2511, 2511, 2512, 2576, 2575
2512, 2512, 2513, 2577, 2576
2513, 2513, 2514, 2578, 2577
2514, 2514, 2515, 2579, 2578
2515, 2515, 2516, 2580, 2579
2516, 2516, 2517, 2581, 2580
2517, 2517, 2518, 2582, 2581
2518, 2518, 2519, 2583, 2582
2519, 2519, 2520, 2584, 2583
2520, 2520, 2521, 2585, 2584
2521, 2521, 2522, 2586, 2585
2522, 2522, 2523, 2587, 2586
2523, 2523, 2524, 2588, 2587
2524, 2524, 2525, 2589, 2588
2525, 2525, 2526, 2590, 2589
2526, 2526, 2527, 2591, 2590
2527, 2527, 2528, 2592, 2591
2528, 2528, 2529, 2593, 2592
2529, 2529, 2530, 2594, 2593
2530, 2530, 2531, 2595, 2594
2531, 2531, 2532, 2596, 2595
2532, 2532, 2533, 2597, 2596
2533, 2533, 2534, 2598, 2597
2534, 2534, 2535, 2599, 2598
2535, 2535, 2536, 2600, 2599
2536, 2536, 2537, 2601, 2600
2537, 2537, 2538, 2602, 2601
2538, 2538, 2539, 2603, 2602
2539, 2539, 2540, 2604, 2603
2540, 2540, 2541, 2605, 2604
2541, 2541, 2542, 2606, 2605
2542, 2542, 2543, 2607, 2606
2543, 2543, 2544, 2608, 2607
2544, 2544, 2545, 2609, 2608
2545, 2545, 2546, 2610, 2609
2546, 2546, 2547, 2611, 2610
2547, 2547, 2548, 2612, 2611
2548, 2548, 2549, 2613, 2612
2549, 2549, 2550, 2614, 2613
2550, 2550, 2551, 2615, 2614
2551, 2551, 2552, 2616, 2615
2552, 2552, 2553, 2617, 2616
2553, 2553, 2554, 2618, 2617
2554, 2554, 2555, 2619, 2618
2555, 2555, 2556, 2620, 2619
2556, 2556, 2557, 2621, 2620
2557, 2557, 2558, 2622, 2621
2558, 2558, 2559, 2623, 2622
2559, 2559, 2560, 2624, 2623
2560, 2560, 2497, 2561, 2624
*SHELL SECTION, ELSET=Shell, MATERIAL=STEEL
2.0
*MATERIAL, NAME=STEEL
*ELASTIC
203000.0, 0.3
*NSET, NSET=Bot, GENERATE
1, 64, 1
*NSET, NSET=Top, GENERATE
2561, 2624, 1
*TRANSFORM, NSET=Bot, TYPE=C
0, 0, 0, 0, 0, 1
*TRANSFORM, NSET=Top, TYPE=C
0, 0, 0, 0, 0, 1
*BOUNDARY
Bot, 1, 2
Bot, 3, 3
Top, 1, 2
*STEP
*BUCKLE
10,
*CLOAD
2561, 3, -1.562500e-02
2562, 3, -1.562500e-02
2563, 3, -1.562500e-02
2564, 3, -1.562500e-02
2565, 3, -1.562500e-02
2566, 3, -1.562500e-02
2567, 3, -1.562500e-02
2568, 3, -1.562500e-02
2569, 3, -1.562500e-02
2570, 3, -1.562500e-02
2571, 3, -1.562500e-02
2572, 3, -1.562500e-02
2573, 3, -1.562500e-02
2574, 3, -1.562500e-02
2575, 3, -1.562500e-02
2576, 3, -1.562500e-02
2577, 3, -1.562500e-02
2578, 3, -1.562500e-02
2579, 3, -1.562500e-02
2580, 3, -1.562500e-02
2581, 3, -1.562500e-02
2582, 3, -1.562500e-02
2583, 3, -1.562500e-02
2584, 3, -1.562500e-02
2585, 3, -1.562500e-02
2586, 3, -1.562500e-02
2587, 3, -1.562500e-02
2588, 3, -1.562500e-02
2589, 3, -1.562500e-02
2590, 3, -1.562500e-02
2591, 3, -1.562500e-02
2592, 3, -1.562500e-02
2593, 3, -1.562500e-02
2594, 3, -1.562500e-02
2595, 3, -1.562500e-02
2596, 3, -1.562500e-02
2597, 3, -1.562500e-02
2598, 3, -1.562500e-02
2599, 3, -1.562500e-02
2600, 3, -1.562500e-02
2601, 3, -1.562500e-02
2602, 3, -1.562500e-02
2603, 3, -1.562500e-02
2604, 3, -1.562500e-02
2605, 3, -1.562500e-02
2606, 3, -1.562500e-02
2607, 3, -1.562500e-02
2608, 3, -1.562500e-02
2609, 3, -1.562500e-02
2610, 3, -1.562500e-02
2611, 3, -1.562500e-02
2612, 3, -1.562500e-02
2613, 3, -1.562500e-02
2614, 3, -1.562500e-02
2615, 3, -1.562500e-02
2616, 3, -1.562500e-02
2617, 3, -1.562500e-02
2618, 3, -1.562500e-02
2619, 3, -1.562500e-02
2620, 3, -1.562500e-02
2621, 3, -1.562500e-02
2622, 3, -1.562500e-02
2623, 3, -1.562500e-02
2624, 3, -1.562500e-02
*NODE FILE, NSET=Shell
U
*END STEP
